     Program PWSCF v.7.4 starts on 16May2025 at 21:48:22

     Waiting for input...
     Reading input from standard input

     Current dimensions of program PWSCF are:
     Max number of different atomic species (ntypx) = 10
     Max number of k-points (npk) =  40000
     Max angular momentum in pseudopotentials (lmaxx) =  4
     Message from routine setup:
     using ibrav=0 with symmetry is DISCOURAGED, use correct ibrav instead

     R & G space division:  proc/nbgrp/npool/nimage =       2
     Subspace diagonalization in iterative solution of the eigenvalue problem:
     a serial algorithm will be used

     Using Slab Decomposition

     bravais-lattice index     =            0
     lattice parameter (alat)  =      25.7291  a.u.
     unit-cell volume          =   17032.2583 (a.u.)^3
     number of atoms/cell      =           20
     number of atomic types    =            1
     number of electrons       =       180.00
     number of Kohn-Sham states=          108
     kinetic-energy cutoff     =      30.0000  Ry
     charge density cutoff     =     240.0000  Ry
     scf convergence threshold =      4.0E-09
     mixing beta               =       0.4000
     number of iterations used =            8  plain     mixing
     Exchange-correlation= SLA  PW   PBE  PBE
                           (   1   4   3   4   0   0   0)

     GPU used by master process:

        Device Number: 0
        Compute capability : 86
        Ratio of single to double precision performance  : 32

     celldm(1)=  25.729069  celldm(2)=   0.000000  celldm(3)=   0.000000
     celldm(4)=   0.000000  celldm(5)=   0.000000  celldm(6)=   0.000000

     crystal axes: (cart. coord. in units of alat)
               a(1) = (   1.000000   0.000000   0.000000 )
               a(2) = (   0.000000   1.000000   0.000000 )
               a(3) = (   0.000000   0.000000   1.000000 )

     reciprocal axes: (cart. coord. in units 2 pi/alat)
               b(1) = (  1.000000  0.000000  0.000000 )
               b(2) = (  0.000000  1.000000  0.000000 )
               b(3) = (  0.000000  0.000000  1.000000 )

     PseudoPot. # 1 for Cs read from file:
     ../pseudo/Cs_pbe_v1.uspp.F.UPF
     MD5 check sum: 3476d69cb178dfad3ffaa59df4e07ca4
     Pseudo is Ultrasoft + core correction, Zval =  9.0
     Generated by new atomic code, or converted to UPF format
     Using radial grid of  905 points,  6 beta functions with:
                l(1) =   0
                l(2) =   0
                l(3) =   1
                l(4) =   1
                l(5) =   2
                l(6) =   2
     Q(r) pseudized with  6 coefficients,  rinner =    1.500   1.500   1.500
                                                       1.500   1.500

     atomic species   valence    mass     pseudopotential
     Cs                9.00   132.90545     Cs( 1.00)

     24 Sym. Ops. (no inversion) found (21 have fractional translation)

                                    s                        frac. trans.

      isym =  1     identity

 cryst.   s( 1) = (     1          0          0      )
                  (     0          1          0      )
                  (     0          0          1      )

 cart.    s( 1) = (  1.0000000  0.0000000  0.0000000 )
                  (  0.0000000  1.0000000  0.0000000 )
                  (  0.0000000  0.0000000  1.0000000 )

      isym =  2     180 deg rotation - cart. axis [0,0,1]

 cryst.   s( 2) = (    -1          0          0      )    f =(  0.5000000 )
                  (     0         -1          0      )       (  0.0000000 )
                  (     0          0          1      )       (  0.5000000 )

 cart.    s( 2) = ( -1.0000000  0.0000000  0.0000000 )    f =(  0.5000000 )
                  (  0.0000000 -1.0000000  0.0000000 )       (  0.0000000 )
                  (  0.0000000  0.0000000  1.0000000 )       (  0.5000000 )

[...]

 cryst.   s( 9) = (     0          0          1      )    f =( -0.2500000 )
                  (     0         -1          0      )       ( -0.2500000 )
                  (     1          0          0      )       (  0.2500000 )

 cart.    s( 9) = (  0.0000000  0.0000000  1.0000000 )    f =( -0.2500000 )
                  (  0.0000000 -1.0000000  0.0000000 )       ( -0.2500000 )
                  (  1.0000000  0.0000000  0.0000000 )       (  0.2500000 )

[...]

 cryst.   s(10) = (     0          0         -1      )    f =(  0.2500000 )
                  (     0         -1          0      )       (  0.2500000 )
                  (    -1          0          0      )       (  0.2500000 )

 cart.    s(10) = (  0.0000000  0.0000000 -1.0000000 )    f =(  0.2500000 )
                  (  0.0000000 -1.0000000  0.0000000 )       (  0.2500000 )
                  ( -1.0000000  0.0000000  0.0000000 )       (  0.2500000 )

[...]

 cryst.   s(17) = (     0          0          1      )
                  (     1          0          0      )
                  (     0          1          0      )

 cart.    s(17) = (  0.0000000  1.0000000  0.0000000 )
                  (  0.0000000  0.0000000  1.0000000 )
                  (  1.0000000  0.0000000  0.0000000 )

[...]

 cryst.   s(21) = (     0          1          0      )
                  (     0          0          1      )
                  (     1          0          0      )

 cart.    s(21) = (  0.0000000  0.0000000  1.0000000 )
                  (  1.0000000  0.0000000  0.0000000 )
                  (  0.0000000  1.0000000  0.0000000 )

[...]

      isym = 24     120 deg rotation - cart. axis [-1,-1,1]

 cryst.   s(24) = (     0          1          0      )    f =(  0.0000000 )
                  (     0          0         -1      )       (  0.5000000 )
                  (    -1          0          0      )       (  0.5000000 )

 cart.    s(24) = (  0.0000000  0.0000000 -1.0000000 )    f =(  0.0000000 )
                  (  1.0000000  0.0000000  0.0000000 )       (  0.5000000 )
                  (  0.0000000 -1.0000000  0.0000000 )       (  0.5000000 )

   Cartesian axes

     site n.     atom                  positions (alat units)
         1        Cs     tau(   1) = (   0.0463726   0.8750000   0.7036274  )
         2        Cs     tau(   2) = (   0.3750000   0.7963726   0.9536274  )
         3        Cs     tau(   3) = (   0.4536274   0.1250000   0.2036274  )
         4        Cs     tau(   4) = (   0.1250000   0.2036274   0.4536274  )
         5        Cs     tau(   5) = (   0.5463726   0.6250000   0.2963726  )
         6        Cs     tau(   6) = (   0.8750000   0.7036274   0.0463726  )
         7        Cs     tau(   7) = (   0.9536274   0.3750000   0.7963726  )
         8        Cs     tau(   8) = (   0.6250000   0.2963726   0.5463726  )
         9        Cs     tau(   9) = (   0.7036274   0.0463726   0.8750000  )
        10        Cs     tau(  10) = (   0.2036274   0.4536274   0.1250000  )
        11        Cs     tau(  11) = (   0.2963726   0.5463726   0.6250000  )
        12        Cs     tau(  12) = (   0.7963726   0.9536274   0.3750000  )
        13        Cs     tau(  13) = (   0.0620384   0.0620384   0.0620384  )
        14        Cs     tau(  14) = (   0.1879616   0.8120384   0.3120384  )
        15        Cs     tau(  15) = (   0.4379616   0.9379616   0.5620384  )
        16        Cs     tau(  16) = (   0.3120384   0.1879616   0.8120384  )
        17        Cs     tau(  17) = (   0.5620384   0.4379616   0.9379616  )
        18        Cs     tau(  18) = (   0.6879616   0.6879616   0.6879616  )
        19        Cs     tau(  19) = (   0.9379616   0.5620384   0.4379616  )
        20        Cs     tau(  20) = (   0.8120384   0.3120384   0.1879616  )

   Crystallographic axes

     site n.     atom                  positions (cryst. coord.)
         1        Cs     tau(   1) = (  0.0463726  0.8750000  0.7036274  )
         2        Cs     tau(   2) = (  0.3750000  0.7963726  0.9536274  )
         3        Cs     tau(   3) = (  0.4536274  0.1250000  0.2036274  )
         4        Cs     tau(   4) = (  0.1250000  0.2036274  0.4536274  )
         5        Cs     tau(   5) = (  0.5463726  0.6250000  0.2963726  )
         6        Cs     tau(   6) = (  0.8750000  0.7036274  0.0463726  )
         7        Cs     tau(   7) = (  0.9536274  0.3750000  0.7963726  )
         8        Cs     tau(   8) = (  0.6250000  0.2963726  0.5463726  )
         9        Cs     tau(   9) = (  0.7036274  0.0463726  0.8750000  )
        10        Cs     tau(  10) = (  0.2036274  0.4536274  0.1250000  )
        11        Cs     tau(  11) = (  0.2963726  0.5463726  0.6250000  )
        12        Cs     tau(  12) = (  0.7963726  0.9536274  0.3750000  )
        13        Cs     tau(  13) = (  0.0620384  0.0620384  0.0620384  )
        14        Cs     tau(  14) = (  0.1879616  0.8120384  0.3120384  )
        15        Cs     tau(  15) = (  0.4379616  0.9379616  0.5620384  )
        16        Cs     tau(  16) = (  0.3120384  0.1879616  0.8120384  )
        17        Cs     tau(  17) = (  0.5620384  0.4379616  0.9379616  )
        18        Cs     tau(  18) = (  0.6879616  0.6879616  0.6879616  )
        19        Cs     tau(  19) = (  0.9379616  0.5620384  0.4379616  )
        20        Cs     tau(  20) = (  0.8120384  0.3120384  0.1879616  )

     number of k points=    10  Marzari-Vanderbilt smearing, width (Ry)=  0.0200
                       cart. coord. in units 2pi/alat
        k(    1) = (   0.0000000   0.0000000   0.0000000), wk =   0.0312500
        k(    2) = (   0.0000000   0.0000000   0.2500000), wk =   0.1875000
        k(    3) = (   0.0000000   0.0000000  -0.5000000), wk =   0.0937500
        k(    4) = (   0.0000000   0.2500000   0.2500000), wk =   0.3750000
        k(    5) = (   0.0000000   0.2500000  -0.5000000), wk =   0.3750000
        k(    6) = (   0.0000000  -0.5000000  -0.5000000), wk =   0.0937500
        k(    7) = (   0.2500000   0.2500000   0.2500000), wk =   0.2500000
        k(    8) = (   0.2500000   0.2500000  -0.5000000), wk =   0.3750000
        k(    9) = (   0.2500000  -0.5000000  -0.5000000), wk =   0.1875000
        k(   10) = (  -0.5000000  -0.5000000  -0.5000000), wk =   0.0312500

                       cryst. coord.
        k(    1) = (   0.0000000   0.0000000   0.0000000), wk =   0.0312500
        k(    2) = (   0.0000000   0.0000000   0.2500000), wk =   0.1875000
        k(    3) = (   0.0000000   0.0000000  -0.5000000), wk =   0.0937500
        k(    4) = (   0.0000000   0.2500000   0.2500000), wk =   0.3750000
        k(    5) = (   0.0000000   0.2500000  -0.5000000), wk =   0.3750000
        k(    6) = (   0.0000000  -0.5000000  -0.5000000), wk =   0.0937500
        k(    7) = (   0.2500000   0.2500000   0.2500000), wk =   0.2500000
        k(    8) = (   0.2500000   0.2500000  -0.5000000), wk =   0.3750000
        k(    9) = (   0.2500000  -0.5000000  -0.5000000), wk =   0.1875000
        k(   10) = (  -0.5000000  -0.5000000  -0.5000000), wk =   0.0312500

     Initial potential from superposition of free atoms

     starting charge     179.2123, renormalised to     180.0000
     Starting wfcs are  260 randomized atomic wfcs

     Self-consistent Calculation

     iteration #  1     ecut=    30.00 Ry     beta= 0.40
[...]
   -22.0393 -22.0393 -22.0393 -22.0393  -8.9120  -8.9120  -8.9120  -8.9120
    -8.8979  -8.8979  -8.8979  -8.8979  -8.8787  -8.8787  -8.8787  -8.8787
    -8.8700  -8.8700  -8.8700  -8.8700  -8.8609  -8.8609  -8.8609  -8.8609
    -8.8558  -8.8558  -8.8558  -8.8558  -8.8512  -8.8512  -8.8512  -8.8512
    -8.8462  -8.8462  -8.8462  -8.8462  -8.8413  -8.8413  -8.8413  -8.8413
    -8.8327  -8.8327  -8.8327  -8.8327  -8.8246  -8.8246  -8.8246  -8.8246
    -8.8226  -8.8226  -8.8226  -8.8226  -8.8129  -8.8129  -8.8129  -8.8129
    -8.8084  -8.8084  -8.8084  -8.8084  -8.7983  -8.7983  -8.7983  -8.7983
     0.9786   0.9786   0.9786   0.9786   1.0929   1.0929   1.0929   1.0929
     2.2689   2.2689   2.2689   2.2689   2.2875   2.2875   2.2875   2.2875
     2.4137   2.4137   2.4137   2.4137   2.6714   2.6714   2.6714   2.6715
     2.6967   2.6967   2.6968   2.6968

     occupation numbers
     1.0000   1.0000   1.0000   1.0000   1.0000   1.0000   1.0000   1.0000
     1.0000   1.0000   1.0000   1.0000   1.0000   1.0000   1.0000   1.0000
     1.0000   1.0000   1.0000   1.0000   1.0000   1.0000   1.0000   1.0000
     1.0000   1.0000   1.0000   1.0000   1.0000   1.0000   1.0000   1.0000
     1.0000   1.0000   1.0000   1.0000   1.0000   1.0000   1.0000   1.0000
     1.0000   1.0000   1.0000   1.0000   1.0000   1.0000   1.0000   1.0000
     1.0000   1.0000   1.0000   1.0000   1.0000   1.0000   1.0000   1.0000
     1.0000   1.0000   1.0000   1.0000   1.0000   1.0000   1.0000   1.0000
     1.0000   1.0000   1.0000   1.0000   1.0000   1.0000   1.0000   1.0000
     1.0000   1.0000   1.0000   1.0000   1.0000   1.0000   1.0000   1.0000
     1.0004   1.0004   1.0004   1.0004   1.0026   1.0026   1.0026   1.0026
     0.0049   0.0049   0.0049   0.0049   0.0036   0.0036   0.0036   0.0036
     0.0004   0.0004   0.0004   0.0004   0.0000   0.0000   0.0000   0.0000
     0.0000   0.0000   0.0000   0.0000

     the Fermi energy is     1.8736 ev

!    total energy              =   -1261.29256050 Ry
     estimated scf accuracy    <          1.6E-09 Ry
     smearing contrib. (-TS)   =      -0.01257725 Ry
     internal energy E=F+TS    =   -1261.27998325 Ry

     The total energy is F=E-TS. E is the sum of the following terms:
     one-electron contribution =    -381.32545740 Ry
     hartree contribution      =     213.45079481 Ry
     xc contribution           =    -602.58191007 Ry
     ewald contribution        =    -490.82341059 Ry

     convergence has been achieved in   9 iterations

     Forces acting on atoms (cartesian axes, Ry/au):

     atom    1 type  1   force =     0.00023492   -0.00000000   -0.00023492
     atom    2 type  1   force =    -0.00000000    0.00023492   -0.00023492
     atom    3 type  1   force =    -0.00023492   -0.00000000   -0.00023492
     atom    4 type  1   force =     0.00000000   -0.00023492   -0.00023492
     atom    5 type  1   force =     0.00023492    0.00000000    0.00023492
     atom    6 type  1   force =    -0.00000000   -0.00023492    0.00023492
     atom    7 type  1   force =    -0.00023492    0.00000000    0.00023492
     atom    8 type  1   force =     0.00000000    0.00023492    0.00023492
     atom    9 type  1   force =    -0.00023492    0.00023492    0.00000000
     atom   10 type  1   force =    -0.00023492   -0.00023492   -0.00000000
     atom   11 type  1   force =     0.00023492    0.00023492   -0.00000000
     atom   12 type  1   force =     0.00023492   -0.00023492    0.00000000
     atom   13 type  1   force =     0.00006680    0.00006680    0.00006680
     atom   14 type  1   force =    -0.00006680    0.00006680    0.00006680
     atom   15 type  1   force =    -0.00006680   -0.00006680    0.00006680
     atom   16 type  1   force =     0.00006680   -0.00006680    0.00006680
     atom   17 type  1   force =     0.00006680   -0.00006680   -0.00006680
     atom   18 type  1   force =    -0.00006680   -0.00006680   -0.00006680
     atom   19 type  1   force =    -0.00006680    0.00006680   -0.00006680
     atom   20 type  1   force =     0.00006680    0.00006680   -0.00006680
     The non-local contrib.  to forces
     atom    1 type  1   force =    -0.00047583   -0.00000000    0.00047583
     atom    2 type  1   force =    -0.00000000   -0.00047583    0.00047583
     atom    3 type  1   force =     0.00047583   -0.00000000    0.00047583
     atom    4 type  1   force =    -0.00000000    0.00047583    0.00047583
     atom    5 type  1   force =    -0.00047583    0.00000000   -0.00047583
     atom    6 type  1   force =    -0.00000000    0.00047583   -0.00047583
     atom    7 type  1   force =     0.00047583    0.00000000   -0.00047583
     atom    8 type  1   force =    -0.00000000   -0.00047583   -0.00047583
     atom    9 type  1   force =     0.00047583   -0.00047583    0.00000000
     atom   10 type  1   force =     0.00047583    0.00047583    0.00000000
     atom   11 type  1   force =    -0.00047583   -0.00047583   -0.00000000
     atom   12 type  1   force =    -0.00047583    0.00047583    0.00000000
     atom   13 type  1   force =     0.00071716    0.00071716    0.00071716
     atom   14 type  1   force =    -0.00071716    0.00071716    0.00071716
     atom   15 type  1   force =    -0.00071716   -0.00071716    0.00071716
     atom   16 type  1   force =     0.00071716   -0.00071716    0.00071716
     atom   17 type  1   force =     0.00071716   -0.00071716   -0.00071716
     atom   18 type  1   force =    -0.00071716   -0.00071716   -0.00071716
     atom   19 type  1   force =    -0.00071716    0.00071716   -0.00071716
     atom   20 type  1   force =     0.00071716    0.00071716   -0.00071716
     The ionic contribution  to forces
     atom    1 type  1   force =    -0.15400498   -0.00000000    0.15400498
     atom    2 type  1   force =    -0.00000000   -0.15400498    0.15400498
     atom    3 type  1   force =     0.15400498   -0.00000000    0.15400498
     atom    4 type  1   force =    -0.00000000    0.15400498    0.15400498
     atom    5 type  1   force =    -0.15400498    0.00000000   -0.15400498
     atom    6 type  1   force =    -0.00000000    0.15400498   -0.15400498
     atom    7 type  1   force =     0.15400498   -0.00000000   -0.15400498
     atom    8 type  1   force =    -0.00000000   -0.15400498   -0.15400498
     atom    9 type  1   force =     0.15400498   -0.15400498   -0.00000000
     atom   10 type  1   force =     0.15400498    0.15400498   -0.00000000
     atom   11 type  1   force =    -0.15400498   -0.15400498    0.00000000
     atom   12 type  1   force =    -0.15400498    0.15400498    0.00000000
     atom   13 type  1   force =    -0.11943379   -0.11943379   -0.11943379
     atom   14 type  1   force =     0.11943379   -0.11943379   -0.11943379
     atom   15 type  1   force =     0.11943379    0.11943379   -0.11943379
     atom   16 type  1   force =    -0.11943379    0.11943379   -0.11943379
     atom   17 type  1   force =    -0.11943379    0.11943379    0.11943379
     atom   18 type  1   force =     0.11943379    0.11943379    0.11943379
     atom   19 type  1   force =     0.11943379   -0.11943379    0.11943379
     atom   20 type  1   force =    -0.11943379   -0.11943379    0.11943379
     The local contribution  to forces
     atom    1 type  1   force =     0.15462127    0.00000000   -0.15462127
     atom    2 type  1   force =    -0.00000000    0.15462127   -0.15462127
     atom    3 type  1   force =    -0.15462127    0.00000000   -0.15462127
     atom    4 type  1   force =     0.00000000   -0.15462127   -0.15462127
     atom    5 type  1   force =     0.15462127    0.00000000    0.15462127
     atom    6 type  1   force =     0.00000000   -0.15462127    0.15462127
     atom    7 type  1   force =    -0.15462127    0.00000000    0.15462127
     atom    8 type  1   force =     0.00000000    0.15462127    0.15462127
     atom    9 type  1   force =    -0.15462127    0.15462127    0.00000000
     atom   10 type  1   force =    -0.15462127   -0.15462127    0.00000000
     atom   11 type  1   force =     0.15462127    0.15462127    0.00000000
     atom   12 type  1   force =     0.15462127   -0.15462127    0.00000000
     atom   13 type  1   force =     0.11883564    0.11883564    0.11883564
     atom   14 type  1   force =    -0.11883564    0.11883564    0.11883564
     atom   15 type  1   force =    -0.11883564   -0.11883564    0.11883564
     atom   16 type  1   force =     0.11883564   -0.11883564    0.11883564
     atom   17 type  1   force =     0.11883564   -0.11883564   -0.11883564
     atom   18 type  1   force =    -0.11883564   -0.11883564   -0.11883564
     atom   19 type  1   force =    -0.11883564    0.11883564   -0.11883564
     atom   20 type  1   force =     0.11883564    0.11883564   -0.11883564
     The core correction contribution to forces
     atom    1 type  1   force =     0.00011376    0.00000000   -0.00011376
     atom    2 type  1   force =    -0.00000000    0.00011376   -0.00011376
     atom    3 type  1   force =    -0.00011376    0.00000000   -0.00011376
     atom    4 type  1   force =     0.00000000   -0.00011376   -0.00011376
     atom    5 type  1   force =     0.00011376   -0.00000000    0.00011376
     atom    6 type  1   force =     0.00000000   -0.00011376    0.00011376
     atom    7 type  1   force =    -0.00011376   -0.00000000    0.00011376
     atom    8 type  1   force =    -0.00000000    0.00011376    0.00011376
     atom    9 type  1   force =    -0.00011376    0.00011376    0.00000000
     atom   10 type  1   force =    -0.00011376   -0.00011376    0.00000000
     atom   11 type  1   force =     0.00011376    0.00011376   -0.00000000
     atom   12 type  1   force =     0.00011376   -0.00011376   -0.00000000
     atom   13 type  1   force =    -0.00004148   -0.00004148   -0.00004148
     atom   14 type  1   force =     0.00004148   -0.00004148   -0.00004148
     atom   15 type  1   force =     0.00004148    0.00004148   -0.00004148
     atom   16 type  1   force =    -0.00004148    0.00004148   -0.00004148
     atom   17 type  1   force =    -0.00004148    0.00004148    0.00004148
     atom   18 type  1   force =     0.00004148    0.00004148    0.00004148
     atom   19 type  1   force =     0.00004148   -0.00004148    0.00004148
     atom   20 type  1   force =    -0.00004148   -0.00004148    0.00004148
     The Hubbard contrib.    to forces
     atom    1 type  1   force =     0.00000000    0.00000000    0.00000000
     atom    2 type  1   force =     0.00000000    0.00000000    0.00000000
     atom    3 type  1   force =     0.00000000    0.00000000    0.00000000
     atom    4 type  1   force =     0.00000000    0.00000000    0.00000000
     atom    5 type  1   force =     0.00000000    0.00000000    0.00000000
     atom    6 type  1   force =     0.00000000    0.00000000    0.00000000
     atom    7 type  1   force =     0.00000000    0.00000000    0.00000000
     atom    8 type  1   force =     0.00000000    0.00000000    0.00000000
     atom    9 type  1   force =     0.00000000    0.00000000    0.00000000
     atom   10 type  1   force =     0.00000000    0.00000000    0.00000000
     atom   11 type  1   force =     0.00000000    0.00000000    0.00000000
     atom   12 type  1   force =     0.00000000    0.00000000    0.00000000
     atom   13 type  1   force =     0.00000000    0.00000000    0.00000000
     atom   14 type  1   force =     0.00000000    0.00000000    0.00000000
     atom   15 type  1   force =     0.00000000    0.00000000    0.00000000
     atom   16 type  1   force =     0.00000000    0.00000000    0.00000000
     atom   17 type  1   force =     0.00000000    0.00000000    0.00000000
     atom   18 type  1   force =     0.00000000    0.00000000    0.00000000
     atom   19 type  1   force =     0.00000000    0.00000000    0.00000000
     atom   20 type  1   force =     0.00000000    0.00000000    0.00000000
     The SCF correction term to forces
     atom    1 type  1   force =    -0.00001930    0.00000000    0.00001930
     atom    2 type  1   force =     0.00000000   -0.00001930    0.00001930
     atom    3 type  1   force =     0.00001930   -0.00000000    0.00001930
     atom    4 type  1   force =     0.00000000    0.00001930    0.00001930
     atom    5 type  1   force =    -0.00001930    0.00000000   -0.00001930
     atom    6 type  1   force =     0.00000000    0.00001930   -0.00001930
     atom    7 type  1   force =     0.00001930   -0.00000000   -0.00001930
     atom    8 type  1   force =     0.00000000   -0.00001930   -0.00001930
     atom    9 type  1   force =     0.00001930   -0.00001930    0.00000000
     atom   10 type  1   force =     0.00001930    0.00001930    0.00000000
     atom   11 type  1   force =    -0.00001930   -0.00001930    0.00000000
     atom   12 type  1   force =    -0.00001930    0.00001930    0.00000000
     atom   13 type  1   force =    -0.00001073   -0.00001073   -0.00001073
     atom   14 type  1   force =     0.00001073   -0.00001073   -0.00001073
     atom   15 type  1   force =     0.00001073    0.00001073   -0.00001073
     atom   16 type  1   force =    -0.00001073    0.00001073   -0.00001073
     atom   17 type  1   force =    -0.00001073    0.00001073    0.00001073
     atom   18 type  1   force =     0.00001073    0.00001073    0.00001073
     atom   19 type  1   force =     0.00001073   -0.00001073    0.00001073
     atom   20 type  1   force =    -0.00001073   -0.00001073    0.00001073

     Total force =     0.001197     Total SCF correction =     0.000108

     Computing stress (Cartesian axis) and pressure

          total   stress  (Ry/bohr**3)                   (kbar)     P=       -1.02
  -0.00000697   0.00000000   0.00000000           -1.02        0.00        0.00
   0.00000000  -0.00000697   0.00000000            0.00       -1.02        0.00
   0.00000000   0.00000000  -0.00000697            0.00        0.00       -1.02

     kinetic stress (kbar)   1319.30      0.00      0.00
                                0.00   1319.30      0.00
                                0.00      0.00   1319.30

     local   stress (kbar)  -2402.54      0.00      0.00
                                0.00  -2402.54      0.00
                                0.00      0.00  -2402.54

     nonloc. stress (kbar)   2482.58      0.00      0.00
                                0.00   2482.58      0.00
                                0.00      0.00   2482.58

     hartree stress (kbar)    614.51     -0.00     -0.00
                               -0.00    614.51      0.00
                               -0.00      0.00    614.51

     exc-cor stress (kbar)   3536.87      0.00      0.00
                                0.00   3536.87      0.00
                                0.00      0.00   3536.87

     corecor stress (kbar)  -4138.68     -0.00     -0.00
                               -0.00  -4138.68      0.00
                               -0.00      0.00  -4138.68

     ewald   stress (kbar)  -1413.06      0.00      0.00
                                0.00  -1413.06      0.00
                                0.00      0.00  -1413.06

     hubbard stress (kbar)      0.00      0.00      0.00
                                0.00      0.00      0.00
                                0.00      0.00      0.00

     DFT-D   stress (kbar)      0.00      0.00      0.00
                                0.00      0.00      0.00
                                0.00      0.00      0.00

     XDM     stress (kbar)      0.00      0.00      0.00
                                0.00      0.00      0.00
                                0.00      0.00      0.00

     dft-nl  stress (kbar)      0.00      0.00      0.00
                                0.00      0.00      0.00
                                0.00      0.00      0.00

     TS-vdW  stress (kbar)      0.00      0.00      0.00
                                0.00      0.00      0.00
                                0.00      0.00      0.00

     MDB     stress (kbar)      0.00      0.00      0.00
                                0.00      0.00      0.00
                                0.00      0.00      0.00

     3D-RISM stress (kbar)      0.00      0.00      0.00
                                0.00      0.00      0.00
                                0.00      0.00      0.00

     Writing all to output data dir ../out/aiida.save/ :
     XML data file, charge density, pseudopotentials, collected wavefunctions

     General routines
                                        0.57s GPU  (     144 calls)
                                        0.01s GPU  (      10 calls)
                                       67.18s GPU  (    5090 calls)

     Parallel routines

   This run was terminated on:  21:54:24  16May2025

   JOB DONE.