     Program PWSCF v.7.4 starts on  9Apr2025 at 16:11: 3

     Waiting for input...
     Reading input from standard input

     Current dimensions of program PWSCF are:
     Max number of different atomic species (ntypx) = 10
     Max number of k-points (npk) =  40000
     Max angular momentum in pseudopotentials (lmaxx) =  4
     file Pb.pbe-dn-kjpaw_psl.0.2.2.UPF: wavefunction(s)  6S renormalized
     Message from routine setup:
     using ibrav=0 with symmetry is DISCOURAGED, use correct ibrav instead

     R & G space division:  proc/nbgrp/npool/nimage =       2
     Subspace diagonalization in iterative solution of the eigenvalue problem:
     a serial algorithm will be used

     Using Slab Decomposition

     bravais-lattice index     =            0
     lattice parameter (alat)  =       6.7070  a.u.
     unit-cell volume          =     213.3415 (a.u.)^3
     number of atoms/cell      =            1
     number of atomic types    =            1
     number of electrons       =        14.00
     number of Kohn-Sham states=           11
     kinetic-energy cutoff     =      40.0000  Ry
     charge density cutoff     =     320.0000  Ry
     scf convergence threshold =      2.0E-10
     mixing beta               =       0.4000
     number of iterations used =            8  plain     mixing
     energy convergence thresh.=      1.0E-05
     force convergence thresh. =      1.0E-04
     press convergence thresh. =      5.0E-02
     Exchange-correlation= SLA  PW   PBX  PBC
                           (   1   4   3   4   0   0   0)
     nstep                     =           50

     GPU used by master process:

        Device Number: 0
        Compute capability : 86
        Ratio of single to double precision performance  : 32

     celldm(1)=   6.707028  celldm(2)=   0.000000  celldm(3)=   0.000000
     celldm(4)=   0.000000  celldm(5)=   0.000000  celldm(6)=   0.000000

     crystal axes: (cart. coord. in units of alat)
               a(1) = (  -0.707107  -0.707107   0.000000 )
               a(2) = (  -0.707107   0.000000  -0.707107 )
               a(3) = (  -0.000000  -0.707107  -0.707107 )

     reciprocal axes: (cart. coord. in units 2 pi/alat)
               b(1) = ( -0.707107 -0.707107  0.707107 )
               b(2) = ( -0.707107  0.707107 -0.707107 )
               b(3) = (  0.707107 -0.707107 -0.707107 )

     PseudoPot. # 1 for Pb read from file:
     ../pseudo/Pb.pbe-dn-kjpaw_psl.0.2.2.UPF
     MD5 check sum: 9d431e6316058b74ade52399a6cf67da
     Pseudo is Projector augmented-wave + core cor, Zval = 14.0
     Generated using "atomic" code by A. Dal Corso  v.5.0.99 svn rev. 10869
     Shape of augmentation charge: PSQ
     Using radial grid of 1281 points,  6 beta functions with:
                l(1) =   0
                l(2) =   0
                l(3) =   1
                l(4) =   1
                l(5) =   2
                l(6) =   2
     Q(r) pseudized with 0 coefficients

     atomic species   valence    mass     pseudopotential
     Pb               14.00   207.20000     Pb( 1.00)

     48 Sym. Ops., with inversion, found

                                    s                        frac. trans.

      isym =  1     identity

 cryst.   s( 1) = (     1          0          0      )
                  (     0          1          0      )
                  (     0          0          1      )

 cart.    s( 1) = (  1.0000000  0.0000000 -0.0000000 )
                  (  0.0000000  1.0000000 -0.0000000 )
                  (  0.0000000 -0.0000000  1.0000000 )

      isym =  2     180 deg rotation - cart. axis [0,0,1]

[...]

 cryst.   s(10) = (     0          0         -1      )
                  (     0         -1          0      )
                  (    -1          0          0      )

 cart.    s(10) = (  0.0000000 -0.0000000 -1.0000000 )
                  (  0.0000000 -1.0000000 -0.0000000 )
                  ( -1.0000000  0.0000000 -0.0000000 )

[...]

      isym = 25     inversion

[...]

      isym = 26     inv. 180 deg rotation - cart. axis [0,0,1]

[...]

   Cartesian axes

     site n.     atom                  positions (alat units)
         1        Pb     tau(   1) = (  -0.0000000   0.0000000   0.0000000  )

   Crystallographic axes

     site n.     atom                  positions (cryst. coord.)
         1        Pb     tau(   1) = (  0.0000000  0.0000000 -0.0000000  )

     number of k points=   120  Marzari-Vanderbilt smearing, width (Ry)=  0.0200
                       cart. coord. in units 2pi/alat
        k(    1) = (   0.0000000   0.0000000   0.0000000), wk =   0.0005926
        k(    2) = (   0.0471405  -0.0471405  -0.0471405), wk =   0.0047407
        k(    3) = (   0.0942809  -0.0942809  -0.0942809), wk =   0.0047407
        k(    4) = (   0.1414214  -0.1414214  -0.1414214), wk =   0.0047407
        k(    5) = (   0.1885618  -0.1885618  -0.1885618), wk =   0.0047407
        k(    6) = (   0.2357023  -0.2357023  -0.2357023), wk =   0.0047407
        k(    7) = (   0.2828427  -0.2828427  -0.2828427), wk =   0.0047407
        k(    8) = (   0.3299832  -0.3299832  -0.3299832), wk =   0.0047407
        k(    9) = (   0.0000000  -0.0000000  -0.0942809), wk =   0.0035556
        k(   10) = (   0.0471405  -0.0471405  -0.1414214), wk =   0.0142222
        k(   11) = (   0.0942809  -0.0942809  -0.1885618), wk =   0.0142222
        k(   12) = (   0.1414214  -0.1414214  -0.2357023), wk =   0.0142222
        k(   13) = (   0.1885618  -0.1885618  -0.2828427), wk =   0.0142222
        k(   14) = (   0.2357023  -0.2357023  -0.3299832), wk =   0.0142222
        k(   15) = (   0.2828427  -0.2828427  -0.3771236), wk =   0.0142222
        k(   16) = (  -0.3771236   0.3771236   0.2828427), wk =   0.0142222
        k(   17) = (  -0.3299832   0.3299832   0.2357023), wk =   0.0142222
        k(   18) = (  -0.2828427   0.2828427   0.1885618), wk =   0.0142222
        k(   19) = (  -0.2357023   0.2357023   0.1414214), wk =   0.0142222
        k(   20) = (  -0.1885618   0.1885618   0.0942809), wk =   0.0142222
        k(   21) = (  -0.1414214   0.1414214   0.0471405), wk =   0.0142222
        k(   22) = (  -0.0942809   0.0942809  -0.0000000), wk =   0.0071111
        k(   23) = (   0.0000000  -0.0000000  -0.1885618), wk =   0.0035556
        k(   24) = (   0.0471405  -0.0471405  -0.2357023), wk =   0.0142222
        k(   25) = (   0.0942809  -0.0942809  -0.2828427), wk =   0.0142222
        k(   26) = (   0.1414214  -0.1414214  -0.3299832), wk =   0.0142222
        k(   27) = (   0.1885618  -0.1885618  -0.3771236), wk =   0.0142222
        k(   28) = (   0.2357023  -0.2357023  -0.4242641), wk =   0.0142222
        k(   29) = (  -0.4242641   0.4242641   0.2357023), wk =   0.0142222
        k(   30) = (  -0.3771236   0.3771236   0.1885618), wk =   0.0142222
        k(   31) = (  -0.3299832   0.3299832   0.1414214), wk =   0.0142222
        k(   32) = (  -0.2828427   0.2828427   0.0942809), wk =   0.0142222
        k(   33) = (  -0.2357023   0.2357023   0.0471405), wk =   0.0142222
        k(   34) = (  -0.1885618   0.1885618  -0.0000000), wk =   0.0071111
        k(   35) = (  -0.0000000   0.0000000  -0.2828427), wk =   0.0035556
        k(   36) = (   0.0471405  -0.0471405  -0.3299832), wk =   0.0142222
        k(   37) = (   0.0942809  -0.0942809  -0.3771236), wk =   0.0142222
        k(   38) = (   0.1414214  -0.1414214  -0.4242641), wk =   0.0142222
        k(   39) = (   0.1885618  -0.1885618  -0.4714045), wk =   0.0142222
        k(   40) = (  -0.4714045   0.4714045   0.1885618), wk =   0.0142222
        k(   41) = (  -0.4242641   0.4242641   0.1414214), wk =   0.0142222
        k(   42) = (  -0.3771236   0.3771236   0.0942809), wk =   0.0142222
        k(   43) = (  -0.3299832   0.3299832   0.0471405), wk =   0.0142222
        k(   44) = (  -0.2828427   0.2828427  -0.0000000), wk =   0.0071111
        k(   45) = (   0.0000000  -0.0000000  -0.3771236), wk =   0.0035556
        k(   46) = (   0.0471405  -0.0471405  -0.4242641), wk =   0.0142222
        k(   47) = (   0.0942809  -0.0942809  -0.4714045), wk =   0.0142222
        k(   48) = (   0.1414214  -0.1414214  -0.5185450), wk =   0.0142222
        k(   49) = (  -0.5185450   0.5185450   0.1414214), wk =   0.0142222
        k(   50) = (  -0.4714045   0.4714045   0.0942809), wk =   0.0142222
        k(   51) = (  -0.4242641   0.4242641   0.0471405), wk =   0.0142222
        k(   52) = (  -0.3771236   0.3771236   0.0000000), wk =   0.0071111
        k(   53) = (   0.0000000  -0.0000000  -0.4714045), wk =   0.0035556
        k(   54) = (   0.0471405  -0.0471405  -0.5185450), wk =   0.0142222
        k(   55) = (   0.0942809  -0.0942809  -0.5656854), wk =   0.0142222
        k(   56) = (  -0.5656854   0.5656854   0.0942809), wk =   0.0142222
        k(   57) = (  -0.5185450   0.5185450   0.0471405), wk =   0.0142222
        k(   58) = (  -0.4714045   0.4714045   0.0000000), wk =   0.0071111
        k(   59) = (  -0.0000000   0.0000000  -0.5656854), wk =   0.0035556
        k(   60) = (   0.0471405  -0.0471405  -0.6128259), wk =   0.0142222
[...]
        k(  106) = (  -0.6599663   0.4714045   0.1885618), wk =   0.0284444
        k(  107) = (  -0.6128259   0.4242641   0.1414214), wk =   0.0284444
        k(  108) = (  -0.5656854   0.3771236   0.0942809), wk =   0.0284444
        k(  109) = (  -0.5185450   0.3299832   0.0471405), wk =   0.0284444
        k(  110) = (  -0.4714045   0.2828427  -0.0000000), wk =   0.0142222
        k(  111) = (  -0.7071068   0.5185450   0.1414214), wk =   0.0142222
        k(  112) = (  -0.6599663   0.4714045   0.0942809), wk =   0.0284444
        k(  113) = (  -0.6128259   0.4242641   0.0471405), wk =   0.0284444
        k(  114) = (  -0.5656854   0.3771236   0.0000000), wk =   0.0142222
        k(  115) = (  -0.7071068   0.5185450   0.0471405), wk =   0.0142222
        k(  116) = (  -0.6599663   0.4714045   0.0000000), wk =   0.0142222
        k(  117) = (  -0.7071068   0.4242641   0.1414214), wk =   0.0142222
        k(  118) = (  -0.6599663   0.3771236   0.0942809), wk =   0.0284444
        k(  119) = (  -0.7071068   0.4242641   0.0471405), wk =   0.0142222
        k(  120) = (  -0.6599663   0.3771236   0.0000000), wk =   0.0142222

                       cryst. coord.
        k(    1) = (   0.0000000   0.0000000  -0.0000000), wk =   0.0005926
        k(    2) = (   0.0000000   0.0000000   0.0666667), wk =   0.0047407
        k(    3) = (   0.0000000   0.0000000   0.1333333), wk =   0.0047407
        k(    4) = (   0.0000000   0.0000000   0.2000000), wk =   0.0047407
        k(    5) = (   0.0000000   0.0000000   0.2666667), wk =   0.0047407
        k(    6) = (  -0.0000000  -0.0000000   0.3333333), wk =   0.0047407
        k(    7) = (   0.0000000   0.0000000   0.4000000), wk =   0.0047407
        k(    8) = (  -0.0000000  -0.0000000   0.4666667), wk =   0.0047407
        k(    9) = (   0.0000000   0.0666667   0.0666667), wk =   0.0035556
        k(   10) = (   0.0000000   0.0666667   0.1333333), wk =   0.0142222
        k(   11) = (   0.0000000   0.0666667   0.2000000), wk =   0.0142222
        k(   12) = (   0.0000000   0.0666667   0.2666667), wk =   0.0142222
[...]
        k(   13) = (   0.1884606  -0.1884606  -0.2826909), wk =   0.0142222
        k(   14) = (   0.2355758  -0.2355758  -0.3298061), wk =   0.0142222
        k(   15) = (   0.2826909  -0.2826909  -0.3769212), wk =   0.0142222
        k(   16) = (  -0.3769212   0.3769212   0.2826909), wk =   0.0142222
        k(   17) = (  -0.3298061   0.3298061   0.2355758), wk =   0.0142222
        k(   18) = (  -0.2826909   0.2826909   0.1884606), wk =   0.0142222
        k(   19) = (  -0.2355758   0.2355758   0.1413455), wk =   0.0142222
        k(   20) = (  -0.1884606   0.1884606   0.0942303), wk =   0.0142222
        k(   21) = (  -0.1413455   0.1413455   0.0471152), wk =   0.0142222
        k(   22) = (  -0.0942303   0.0942303   0.0000000), wk =   0.0071111
        k(   23) = (  -0.0000000   0.0000000  -0.1884606), wk =   0.0035556
        k(   24) = (   0.0471152  -0.0471152  -0.2355758), wk =   0.0142222
        k(   25) = (   0.0942303  -0.0942303  -0.2826909), wk =   0.0142222
        k(   26) = (   0.1413455  -0.1413455  -0.3298061), wk =   0.0142222
        k(   27) = (   0.1884606  -0.1884606  -0.3769212), wk =   0.0142222
        k(   28) = (   0.2355758  -0.2355758  -0.4240364), wk =   0.0142222
        k(   29) = (  -0.4240364   0.4240364   0.2355758), wk =   0.0142222
        k(   30) = (  -0.3769212   0.3769212   0.1884606), wk =   0.0142222
        k(   31) = (  -0.3298061   0.3298061   0.1413455), wk =   0.0142222
        k(   32) = (  -0.2826909   0.2826909   0.0942303), wk =   0.0142222
        k(   33) = (  -0.2355758   0.2355758   0.0471152), wk =   0.0142222
        k(   34) = (  -0.1884606   0.1884606   0.0000000), wk =   0.0071111
        k(   35) = (  -0.0000000   0.0000000  -0.2826909), wk =   0.0035556
        k(   36) = (   0.0471152  -0.0471152  -0.3298061), wk =   0.0142222
        k(   37) = (   0.0942303  -0.0942303  -0.3769212), wk =   0.0142222
        k(   38) = (   0.1413455  -0.1413455  -0.4240364), wk =   0.0142222
        k(   39) = (   0.1884606  -0.1884606  -0.4711515), wk =   0.0142222
        k(   40) = (  -0.4711515   0.4711515   0.1884606), wk =   0.0142222
        k(   41) = (  -0.4240364   0.4240364   0.1413455), wk =   0.0142222
        k(   42) = (  -0.3769212   0.3769212   0.0942303), wk =   0.0142222
        k(   43) = (  -0.3298061   0.3298061   0.0471152), wk =   0.0142222
        k(   44) = (  -0.2826909   0.2826909  -0.0000000), wk =   0.0071111
        k(   45) = (  -0.0000000   0.0000000  -0.3769212), wk =   0.0035556
        k(   46) = (   0.0471152  -0.0471152  -0.4240364), wk =   0.0142222
        k(   47) = (   0.0942303  -0.0942303  -0.4711515), wk =   0.0142222
        k(   48) = (   0.1413455  -0.1413455  -0.5182667), wk =   0.0142222
        k(   49) = (  -0.5182667   0.5182667   0.1413455), wk =   0.0142222
        k(   50) = (  -0.4711515   0.4711515   0.0942303), wk =   0.0142222
        k(   51) = (  -0.4240364   0.4240364   0.0471152), wk =   0.0142222
        k(   52) = (  -0.3769212   0.3769212   0.0000000), wk =   0.0071111
        k(   53) = (  -0.0000000   0.0000000  -0.4711515), wk =   0.0035556
        k(   54) = (   0.0471152  -0.0471152  -0.5182667), wk =   0.0142222
        k(   55) = (   0.0942303  -0.0942303  -0.5653818), wk =   0.0142222
        k(   56) = (  -0.5653818   0.5653818   0.0942303), wk =   0.0142222
        k(   57) = (  -0.5182667   0.5182667   0.0471152), wk =   0.0142222
        k(   58) = (  -0.4711515   0.4711515   0.0000000), wk =   0.0071111
        k(   59) = (  -0.0000000   0.0000000  -0.5653818), wk =   0.0035556
        k(   60) = (   0.0471152  -0.0471152  -0.6124970), wk =   0.0142222
[...]
        k(  106) = (  -0.6596121   0.4711515   0.1884606), wk =   0.0284444
        k(  107) = (  -0.6124970   0.4240364   0.1413455), wk =   0.0284444
        k(  108) = (  -0.5653818   0.3769212   0.0942303), wk =   0.0284444
        k(  109) = (  -0.5182667   0.3298061   0.0471152), wk =   0.0284444
        k(  110) = (  -0.4711515   0.2826909   0.0000000), wk =   0.0142222
        k(  111) = (  -0.7067273   0.5182667   0.1413455), wk =   0.0142222
        k(  112) = (  -0.6596121   0.4711515   0.0942303), wk =   0.0284444
        k(  113) = (  -0.6124970   0.4240364   0.0471152), wk =   0.0284444
        k(  114) = (  -0.5653818   0.3769212   0.0000000), wk =   0.0142222
        k(  115) = (  -0.7067273   0.5182667   0.0471152), wk =   0.0142222
        k(  116) = (  -0.6596121   0.4711515  -0.0000000), wk =   0.0142222
        k(  117) = (  -0.7067273   0.4240364   0.1413455), wk =   0.0142222
        k(  118) = (  -0.6596121   0.3769212   0.0942303), wk =   0.0284444
        k(  119) = (  -0.7067273   0.4240364   0.0471152), wk =   0.0142222
        k(  120) = (  -0.6596121   0.3769212   0.0000000), wk =   0.0142222

                       cryst. coord.
        k(    1) = (   0.0000000   0.0000000   0.0000000), wk =   0.0005926
        k(    2) = (  -0.0000000   0.0000000   0.0666667), wk =   0.0047407
        k(    3) = (  -0.0000000   0.0000000   0.1333333), wk =   0.0047407
        k(    4) = (   0.0000000   0.0000000   0.2000000), wk =   0.0047407
        k(    5) = (  -0.0000000   0.0000000   0.2666667), wk =   0.0047407
        k(    6) = (   0.0000000  -0.0000000   0.3333333), wk =   0.0047407
        k(    7) = (   0.0000000   0.0000000   0.4000000), wk =   0.0047407
        k(    8) = (   0.0000000  -0.0000000   0.4666667), wk =   0.0047407
        k(    9) = (  -0.0000000   0.0666667   0.0666667), wk =   0.0035556
        k(   10) = (  -0.0000000   0.0666667   0.1333333), wk =   0.0142222
        k(   11) = (  -0.0000000   0.0666667   0.2000000), wk =   0.0142222
        k(   12) = (   0.0000000   0.0666667   0.2666667), wk =   0.0142222
        k(   13) = (  -0.0000000   0.0666667   0.3333333), wk =   0.0142222
        k(   14) = (  -0.0000000   0.0666667   0.4000000), wk =   0.0142222
        k(   15) = (  -0.0000000   0.0666667   0.4666667), wk =   0.0142222
        k(   16) = (  -0.0000000   0.0666667  -0.4666667), wk =   0.0142222
        k(   17) = (  -0.0000000   0.0666667  -0.4000000), wk =   0.0142222
        k(   18) = (   0.0000000   0.0666667  -0.3333333), wk =   0.0142222
        k(   19) = (  -0.0000000   0.0666667  -0.2666667), wk =   0.0142222
        k(   20) = (  -0.0000000   0.0666667  -0.2000000), wk =   0.0142222
        k(   21) = (  -0.0000000   0.0666667  -0.1333333), wk =   0.0142222
        k(   22) = (   0.0000000   0.0666667  -0.0666667), wk =   0.0071111
        k(   23) = (  -0.0000000   0.1333333   0.1333333), wk =   0.0035556
        k(   24) = (   0.0000000   0.1333333   0.2000000), wk =   0.0142222
        k(   25) = (  -0.0000000   0.1333333   0.2666667), wk =   0.0142222
        k(   26) = (  -0.0000000   0.1333333   0.3333333), wk =   0.0142222
        k(   27) = (  -0.0000000   0.1333333   0.4000000), wk =   0.0142222
        k(   28) = (  -0.0000000   0.1333333   0.4666667), wk =   0.0142222
        k(   29) = (  -0.0000000   0.1333333  -0.4666667), wk =   0.0142222
        k(   30) = (  -0.0000000   0.1333333  -0.4000000), wk =   0.0142222
        k(   31) = (  -0.0000000   0.1333333  -0.3333333), wk =   0.0142222
        k(   32) = (   0.0000000   0.1333333  -0.2666667), wk =   0.0142222
        k(   33) = (  -0.0000000   0.1333333  -0.2000000), wk =   0.0142222
        k(   34) = (   0.0000000   0.1333333  -0.1333333), wk =   0.0071111
        k(   35) = (  -0.0000000   0.2000000   0.2000000), wk =   0.0035556
        k(   36) = (  -0.0000000   0.2000000   0.2666667), wk =   0.0142222
        k(   37) = (   0.0000000   0.2000000   0.3333333), wk =   0.0142222
        k(   38) = (  -0.0000000   0.2000000   0.4000000), wk =   0.0142222
        k(   39) = (  -0.0000000   0.2000000   0.4666667), wk =   0.0142222
        k(   40) = (  -0.0000000   0.2000000  -0.4666667), wk =   0.0142222
        k(   41) = (   0.0000000   0.2000000  -0.4000000), wk =   0.0142222
        k(   42) = (  -0.0000000   0.2000000  -0.3333333), wk =   0.0142222
        k(   43) = (   0.0000000   0.2000000  -0.2666667), wk =   0.0142222
        k(   44) = (  -0.0000000   0.2000000  -0.2000000), wk =   0.0071111
        k(   45) = (  -0.0000000   0.2666667   0.2666667), wk =   0.0035556
        k(   46) = (  -0.0000000   0.2666667   0.3333333), wk =   0.0142222
        k(   47) = (   0.0000000   0.2666667   0.4000000), wk =   0.0142222
        k(   48) = (  -0.0000000   0.2666667   0.4666667), wk =   0.0142222
        k(   49) = (  -0.0000000   0.2666667  -0.4666667), wk =   0.0142222
        k(   50) = (   0.0000000   0.2666667  -0.4000000), wk =   0.0142222
        k(   51) = (  -0.0000000   0.2666667  -0.3333333), wk =   0.0142222
        k(   52) = (   0.0000000   0.2666667  -0.2666667), wk =   0.0071111
        k(   53) = (  -0.0000000   0.3333333   0.3333333), wk =   0.0035556
        k(   54) = (   0.0000000   0.3333333   0.4000000), wk =   0.0142222
        k(   55) = (   0.0000000   0.3333333   0.4666667), wk =   0.0142222
        k(   56) = (   0.0000000   0.3333333  -0.4666667), wk =   0.0142222
        k(   57) = (  -0.0000000   0.3333333  -0.4000000), wk =   0.0142222
        k(   58) = (  -0.0000000   0.3333333  -0.3333333), wk =   0.0071111
        k(   59) = (  -0.0000000   0.4000000   0.4000000), wk =   0.0035556
        k(   60) = (  -0.0000000   0.4000000   0.4666667), wk =   0.0142222
[...]
        k(  106) = (   0.1333333   0.3333333  -0.4666667), wk =   0.0284444
        k(  107) = (   0.1333333   0.3333333  -0.4000000), wk =   0.0284444
        k(  108) = (   0.1333333   0.3333333  -0.3333333), wk =   0.0284444
        k(  109) = (   0.1333333   0.3333333  -0.2666667), wk =   0.0284444
        k(  110) = (   0.1333333   0.3333333  -0.2000000), wk =   0.0142222
        k(  111) = (   0.1333333   0.4000000  -0.4666667), wk =   0.0142222
        k(  112) = (   0.1333333   0.4000000  -0.4000000), wk =   0.0284444
        k(  113) = (   0.1333333   0.4000000  -0.3333333), wk =   0.0284444
        k(  114) = (   0.1333333   0.4000000  -0.2666667), wk =   0.0142222
        k(  115) = (   0.1333333   0.4666667  -0.4000000), wk =   0.0142222
        k(  116) = (   0.1333333   0.4666667  -0.3333333), wk =   0.0142222
        k(  117) = (   0.2000000   0.4000000  -0.4000000), wk =   0.0142222
        k(  118) = (   0.2000000   0.4000000  -0.3333333), wk =   0.0284444
        k(  119) = (   0.2000000   0.4666667  -0.3333333), wk =   0.0142222
        k(  120) = (   0.2000000   0.4666667  -0.2666667), wk =   0.0142222

     Initial potential from superposition of free atoms

     starting charge      13.9976, renormalised to      14.0000
     Starting wfcs are    9 randomized atomic wfcs +    2 random wfcs
     Checking if some PAW data can be deallocated...

     Self-consistent Calculation

[...]

     c_bands:  1 eigenvalues not converged
     ethr =  1.40E-07,  avg # of iterations =  3.7

[...]

     total energy              =    -870.55533913 Ry
     estimated scf accuracy    <          4.4E-11 Ry

     iteration # 16     ecut=    40.00 Ry     beta= 0.40
     Davidson diagonalization with overlap

     ethr =  3.17E-13,  avg # of iterations =  2.0

     End of self-consistent calculation

[...]

          k = 0.0471-0.2356-0.4240 (   913 PWs)   bands (ev):

[...]

          k =-0.6596 0.3769 0.0000 (   913 PWs)   bands (ev):

    -6.4204  -6.3819  -6.3486  -6.2610  -6.1580   3.8879   9.1452   9.4156
    11.2021  20.6681  22.5270

     occupation numbers
     1.0000   1.0000   1.0000   1.0000   1.0000   1.0000   1.0000   1.0000
     0.0001   0.0000   0.0000

     the Fermi energy is    10.6128 ev

!    total energy              =    -870.55533913 Ry
     total all-electron energy =    -41764.083805 Ry
     estimated scf accuracy    <          9.9E-13 Ry
     smearing contrib. (-TS)   =       0.00003359 Ry
     internal energy E=F+TS    =    -870.55537272 Ry

     The total energy is F=E-TS. E is the sum of the following terms:
     one-electron contribution =     -30.21735684 Ry
     hartree contribution      =      27.12916458 Ry
     xc contribution           =     -44.33843061 Ry
     ewald contribution        =     -94.68999099 Ry
     one-center paw contrib.   =    -728.43875887 Ry
      -> PAW hartree energy AE =     100.19186744 Ry
      -> PAW hartree energy PS =     -99.93881530 Ry
      -> PAW xc energy AE      =    -772.53604944 Ry
      -> PAW xc energy PS      =      43.84423843 Ry
      -> total E_H with PAW    =      27.38221672 Ry
      -> total E_XC with PAW   =    -773.03024162 Ry

     convergence has been achieved in  16 iterations

     Forces acting on atoms (cartesian axes, Ry/au):

     atom    1 type  1   force =     0.00000000    0.00000000    0.00000000
     The non-local contrib.  to forces
     atom    1 type  1   force =     0.00000000    0.00000000   -0.00000000
     The ionic contribution  to forces
     atom    1 type  1   force =    -0.00000000   -0.00000000   -0.00000000
     The local contribution  to forces
     atom    1 type  1   force =    -0.00000000   -0.00000000   -0.00000000
     The core correction contribution to forces
     atom    1 type  1   force =     0.00000000    0.00000000    0.00000000
     The Hubbard contrib.    to forces
     atom    1 type  1   force =     0.00000000    0.00000000    0.00000000
     The SCF correction term to forces
     atom    1 type  1   force =    -0.00000000   -0.00000000    0.00000000

     Total force =     0.000000     Total SCF correction =     0.000000

     Computing stress (Cartesian axis) and pressure

          total   stress  (Ry/bohr**3)                   (kbar)     P=        0.08
   0.00000053  -0.00000000   0.00000000            0.08       -0.00        0.00
   0.00000000   0.00000053  -0.00000000            0.00        0.08       -0.00
   0.00000000   0.00000000   0.00000053            0.00        0.00        0.08

     kinetic stress (kbar)  14210.61     -0.00      0.00
                               -0.00  14210.61     -0.00
                                0.00     -0.00  14210.61

     local   stress (kbar)   5579.82      0.00      0.00
                                0.00   5579.82     -0.00
                                0.00     -0.00   5579.82

     nonloc. stress (kbar)   1266.45      0.00      0.00
                                0.00   1266.45     -0.00
                                0.00     -0.00   1266.45

     hartree stress (kbar)   6225.41     -0.00     -0.00
                               -0.00   6225.41     -0.00
                               -0.00     -0.00   6225.41

     exc-cor stress (kbar)  14173.09     -0.00     -0.00
                               -0.00  14173.09     -0.00
                               -0.00     -0.00  14173.09

     corecor stress (kbar) -19726.51      0.00      0.00
                                0.00 -19726.51     -0.00
                                0.00     -0.00 -19726.51

     ewald   stress (kbar) -21728.80      0.00     -0.00
                                0.00 -21728.80      0.00
                               -0.00      0.00 -21728.80

     hubbard stress (kbar)      0.00      0.00      0.00
                                0.00      0.00      0.00
                                0.00      0.00      0.00

     DFT-D   stress (kbar)      0.00      0.00      0.00
                                0.00      0.00      0.00
                                0.00      0.00      0.00

     XDM     stress (kbar)      0.00      0.00      0.00
                                0.00      0.00      0.00
                                0.00      0.00      0.00

     dft-nl  stress (kbar)      0.00      0.00      0.00
                                0.00      0.00      0.00
                                0.00      0.00      0.00

     TS-vdW  stress (kbar)      0.00      0.00      0.00
                                0.00      0.00      0.00
                                0.00      0.00      0.00

     MDB     stress (kbar)      0.00      0.00      0.00
                                0.00      0.00      0.00
                                0.00      0.00      0.00

     3D-RISM stress (kbar)      0.00      0.00      0.00
                                0.00      0.00      0.00
                                0.00      0.00      0.00

     Writing all to output data dir ../out/aiida.save/ :
     XML data file, charge density, pseudopotentials, collected wavefunctions

     General routines
                                        0.83s GPU  (    1251 calls)
                                        0.06s GPU  (      91 calls)
                                       72.29s GPU  (  105272 calls)

     Parallel routines

     PAW routines

   This run was terminated on:  16:24:22   9Apr2025

   JOB DONE.