     Program PWSCF v.7.4 starts on  9Apr2025 at 16: 8:53

     Waiting for input...
     Reading input from standard input
Warning: card &CELL ignored
Warning: card CELL_DYNAMICS = 'BFGS' ignored
Warning: card PRESS_CONV_THR= 0.05 ignored
Warning: card CELL_DOFREE = 'ALL' ignored
Warning: card / ignored

     Current dimensions of program PWSCF are:
     Max number of different atomic species (ntypx) = 10
     Max number of k-points (npk) =  40000
     Max angular momentum in pseudopotentials (lmaxx) =  4
     Message from routine setup:
     using ibrav=0 with symmetry is DISCOURAGED, use correct ibrav instead

     R & G space division:  proc/nbgrp/npool/nimage =       2
     Subspace diagonalization in iterative solution of the eigenvalue problem:
     a serial algorithm will be used

     Using Slab Decomposition

     bravais-lattice index     =            0
     lattice parameter (alat)  =       5.0297  a.u.
     unit-cell volume          =     203.2640 (a.u.)^3
     number of atoms/cell      =            2
     number of atomic types    =            1
     number of electrons       =        40.00
     number of Kohn-Sham states=           24
     kinetic-energy cutoff     =      40.0000  Ry
     charge density cutoff     =     320.0000  Ry
     scf convergence threshold =      4.0E-10
     mixing beta               =       0.4000
     number of iterations used =            8  plain     mixing
     Exchange-correlation= SLA  PW   PBE  PBE
                           (   1   4   3   4   0   0   0)

     GPU used by master process:

        Device Number: 0
        Compute capability : 86
        Ratio of single to double precision performance  : 32

     celldm(1)=   5.029671  celldm(2)=   0.000000  celldm(3)=   0.000000
     celldm(4)=   0.000000  celldm(5)=   0.000000  celldm(6)=   0.000000

     crystal axes: (cart. coord. in units of alat)
               a(1) = (  -0.500000  -0.866025   0.000000 )
               a(2) = (  -0.500000   0.866025  -0.000000 )
               a(3) = (  -0.000000   0.000000  -1.844638 )

     reciprocal axes: (cart. coord. in units 2 pi/alat)
               b(1) = ( -1.000000 -0.577350  0.000000 )
               b(2) = ( -1.000000  0.577350  0.000000 )
               b(3) = (  0.000000 -0.000000 -0.542112 )

     PseudoPot. # 1 for Zn read from file:
     ../pseudo/Zn_pbe_v1.uspp.F.UPF
     MD5 check sum: df62231357ef9e81f77b2b3087fa5675
     Pseudo is Ultrasoft, Zval = 20.0
     Generated by new atomic code, or converted to UPF format
     Using radial grid of  943 points,  6 beta functions with:
                l(1) =   0
                l(2) =   0
                l(3) =   1
                l(4) =   1
                l(5) =   2
                l(6) =   2
     Q(r) pseudized with  8 coefficients,  rinner =    1.100   1.100   1.100
                                                       1.100   1.100

     atomic species   valence    mass     pseudopotential
     Zn               20.00    65.38000     Zn( 1.00)

     24 Sym. Ops., with inversion, found (12 have fractional translation)

                                    s                        frac. trans.

      isym =  1     identity

 cryst.   s( 1) = (     1          0          0      )
                  (     0          1          0      )
                  (     0          0          1      )

 cart.    s( 1) = (  1.0000000  0.0000000  0.0000000 )
                  ( -0.0000000  1.0000000  0.0000000 )
                  (  0.0000000 -0.0000000  1.0000000 )

      isym =  2     180 deg rotation - cart. axis [0,0,1]

 cryst.   s( 2) = (    -1          0          0      )    f =(  0.0000000 )
                  (     0         -1          0      )       (  0.0000000 )
                  (     0          0          1      )       (  0.5000000 )

 cart.    s( 2) = ( -1.0000000 -0.0000000  0.0000000 )    f =( -0.0000000 )
                  (  0.0000000 -1.0000000  0.0000000 )       (  0.0000000 )
                  (  0.0000000  0.0000000  1.0000000 )       ( -0.9223191 )

[...]

      isym =  4     180 deg rotation - cart. axis [1,0,0]

[...]

      isym =  5      60 deg rotation - cryst. axis [0,0,1]

[...]

 cryst.   s( 8) = (     0          1          0      )
                  (    -1         -1          0      )
                  (     0          0          1      )

 cart.    s( 8) = ( -0.5000000  0.8660254  0.0000000 )
                  ( -0.8660254 -0.5000000  0.0000000 )
                  (  0.0000000  0.0000000  1.0000000 )

[...]

 cryst.   s( 9) = (    -1          0          0      )    f =( -0.0000000 )
                  (     1          1          0      )       (  0.0000000 )
                  (     0          0         -1      )       (  0.5000000 )

 cart.    s( 9) = (  0.5000000 -0.8660254 -0.0000000 )    f =(  0.0000000 )
                  ( -0.8660254 -0.5000000  0.0000000 )       (  0.0000000 )
                  (  0.0000000  0.0000000 -1.0000000 )       ( -0.9223191 )

[...]

 cryst.   s(10) = (     1          1          0      )    f =(  0.0000000 )
                  (     0         -1          0      )       (  0.0000000 )
                  (     0          0         -1      )       (  0.5000000 )

 cart.    s(10) = (  0.5000000  0.8660254 -0.0000000 )    f =( -0.0000000 )
                  (  0.8660254 -0.5000000  0.0000000 )       (  0.0000000 )
                  (  0.0000000  0.0000000 -1.0000000 )       ( -0.9223191 )

[...]

 cryst.   s(11) = (    -1         -1          0      )
                  (     0          1          0      )
                  (     0          0         -1      )

 cart.    s(11) = ( -0.5000000 -0.8660254 -0.0000000 )
                  ( -0.8660254  0.5000000  0.0000000 )
                  (  0.0000000  0.0000000 -1.0000000 )

      isym = 12     180 deg rotation - cryst. axis [1,1,0]

[...]

      isym = 13     inversion

[...]

      isym = 14     inv. 180 deg rotation - cart. axis [0,0,1]

[...]

      isym = 16     inv. 180 deg rotation - cart. axis [1,0,0]

[...]

      isym = 17     inv.  60 deg rotation - cryst. axis [0,0,1]

[...]

 cryst.   s(22) = (    -1         -1          0      )    f =(  0.0000000 )
                  (     0          1          0      )       (  0.0000000 )
                  (     0          0          1      )       (  0.5000000 )

 cart.    s(22) = ( -0.5000000 -0.8660254  0.0000000 )    f =( -0.0000000 )
                  ( -0.8660254  0.5000000  0.0000000 )       (  0.0000000 )
                  (  0.0000000  0.0000000  1.0000000 )       ( -0.9223191 )

[...]

      isym = 24     inv. 180 deg rotation - cryst. axis [1,1,0]

 cryst.   s(24) = (    -1          0          0      )
                  (     1          1          0      )
                  (     0          0          1      )

 cart.    s(24) = (  0.5000000 -0.8660254  0.0000000 )
                  ( -0.8660254 -0.5000000  0.0000000 )
                  (  0.0000000  0.0000000  1.0000000 )

   Cartesian axes

     site n.     atom                  positions (alat units)
         1        Zn     tau(   1) = (  -0.5000000  -0.2886751  -1.3834786  )
         2        Zn     tau(   2) = (  -0.5000000   0.2886751  -0.4611595  )

   Crystallographic axes

     site n.     atom                  positions (cryst. coord.)
         1        Zn     tau(   1) = (  0.6666667  0.3333333  0.7500000  )
         2        Zn     tau(   2) = (  0.3333333  0.6666667  0.2500000  )

     number of k points=   200  Marzari-Vanderbilt smearing, width (Ry)=  0.0200
                       cart. coord. in units 2pi/alat
        k(    1) = (   0.0000000   0.0000000   0.0000000), wk =   0.0006156
        k(    2) = (   0.0000000   0.0000000  -0.0602346), wk =   0.0012311
        k(    3) = (   0.0000000   0.0000000  -0.1204693), wk =   0.0012311
        k(    4) = (   0.0000000   0.0000000  -0.1807039), wk =   0.0012311
        k(    5) = (   0.0000000   0.0000000  -0.2409386), wk =   0.0012311
        k(    6) = (  -0.0526316   0.0303869   0.0000000), wk =   0.0036934
        k(    7) = (  -0.0526316   0.0303869  -0.0602346), wk =   0.0073869
        k(    8) = (  -0.0526316   0.0303869  -0.1204693), wk =   0.0073869
        k(    9) = (  -0.0526316   0.0303869  -0.1807039), wk =   0.0073869
        k(   10) = (  -0.0526316   0.0303869  -0.2409386), wk =   0.0073869
        k(   11) = (  -0.1052632   0.0607737   0.0000000), wk =   0.0036934
        k(   12) = (  -0.1052632   0.0607737  -0.0602346), wk =   0.0073869
        k(   13) = (  -0.1052632   0.0607737  -0.1204693), wk =   0.0073869
        k(   14) = (  -0.1052632   0.0607737  -0.1807039), wk =   0.0073869
        k(   15) = (  -0.1052632   0.0607737  -0.2409386), wk =   0.0073869
        k(   16) = (  -0.1578947   0.0911606   0.0000000), wk =   0.0036934
        k(   17) = (  -0.1578947   0.0911606  -0.0602346), wk =   0.0073869
        k(   18) = (  -0.1578947   0.0911606  -0.1204693), wk =   0.0073869
        k(   19) = (  -0.1578947   0.0911606  -0.1807039), wk =   0.0073869
        k(   20) = (  -0.1578947   0.0911606  -0.2409386), wk =   0.0073869
        k(   21) = (  -0.2105263   0.1215474   0.0000000), wk =   0.0036934
        k(   22) = (  -0.2105263   0.1215474  -0.0602346), wk =   0.0073869
        k(   23) = (  -0.2105263   0.1215474  -0.1204693), wk =   0.0073869
        k(   24) = (  -0.2105263   0.1215474  -0.1807039), wk =   0.0073869
        k(   25) = (  -0.2105263   0.1215474  -0.2409386), wk =   0.0073869
        k(   26) = (  -0.2631579   0.1519343   0.0000000), wk =   0.0036934
        k(   27) = (  -0.2631579   0.1519343  -0.0602346), wk =   0.0073869
        k(   28) = (  -0.2631579   0.1519343  -0.1204693), wk =   0.0073869
        k(   29) = (  -0.2631579   0.1519343  -0.1807039), wk =   0.0073869
        k(   30) = (  -0.2631579   0.1519343  -0.2409386), wk =   0.0073869
        k(   31) = (  -0.3157895   0.1823211   0.0000000), wk =   0.0036934
        k(   32) = (  -0.3157895   0.1823211  -0.0602346), wk =   0.0073869
        k(   33) = (  -0.3157895   0.1823211  -0.1204693), wk =   0.0073869
        k(   34) = (  -0.3157895   0.1823211  -0.1807039), wk =   0.0073869
        k(   35) = (  -0.3157895   0.1823211  -0.2409386), wk =   0.0073869
        k(   36) = (  -0.3684211   0.2127080   0.0000000), wk =   0.0036934
        k(   37) = (  -0.3684211   0.2127080  -0.0602346), wk =   0.0073869
        k(   38) = (  -0.3684211   0.2127080  -0.1204693), wk =   0.0073869
        k(   39) = (  -0.3684211   0.2127080  -0.1807039), wk =   0.0073869
        k(   40) = (  -0.3684211   0.2127080  -0.2409386), wk =   0.0073869
        k(   41) = (  -0.4210526   0.2430949   0.0000000), wk =   0.0036934
        k(   42) = (  -0.4210526   0.2430949  -0.0602346), wk =   0.0073869
        k(   43) = (  -0.4210526   0.2430949  -0.1204693), wk =   0.0073869
        k(   44) = (  -0.4210526   0.2430949  -0.1807039), wk =   0.0073869
        k(   45) = (  -0.4210526   0.2430949  -0.2409386), wk =   0.0073869
        k(   46) = (  -0.4736842   0.2734817   0.0000000), wk =   0.0036934
        k(   47) = (  -0.4736842   0.2734817  -0.0602346), wk =   0.0073869
        k(   48) = (  -0.4736842   0.2734817  -0.1204693), wk =   0.0073869
        k(   49) = (  -0.4736842   0.2734817  -0.1807039), wk =   0.0073869
        k(   50) = (  -0.4736842   0.2734817  -0.2409386), wk =   0.0073869
        k(   51) = (  -0.1052632   0.0000000   0.0000000), wk =   0.0036934
        k(   52) = (  -0.1052632   0.0000000  -0.0602346), wk =   0.0073869
        k(   53) = (  -0.1052632   0.0000000  -0.1204693), wk =   0.0073869
        k(   54) = (  -0.1052632   0.0000000  -0.1807039), wk =   0.0073869
        k(   55) = (  -0.1052632   0.0000000  -0.2409386), wk =   0.0073869
        k(   56) = (  -0.1578947   0.0303869   0.0000000), wk =   0.0073869
        k(   57) = (  -0.1578947   0.0303869  -0.0602346), wk =   0.0147738
        k(   58) = (  -0.1578947   0.0303869  -0.1204693), wk =   0.0147738
        k(   59) = (  -0.1578947   0.0303869  -0.1807039), wk =   0.0147738
        k(   60) = (  -0.1578947   0.0303869  -0.2409386), wk =   0.0147738
[...]
        k(  186) = (  -0.5789474   0.0303869   0.0000000), wk =   0.0073869
        k(  187) = (  -0.5789474   0.0303869  -0.0602346), wk =   0.0147738
        k(  188) = (  -0.5789474   0.0303869  -0.1204693), wk =   0.0147738
        k(  189) = (  -0.5789474   0.0303869  -0.1807039), wk =   0.0147738
        k(  190) = (  -0.5789474   0.0303869  -0.2409386), wk =   0.0147738
        k(  191) = (  -0.6315789   0.0607737   0.0000000), wk =   0.0036934
        k(  192) = (  -0.6315789   0.0607737  -0.0602346), wk =   0.0073869
        k(  193) = (  -0.6315789   0.0607737  -0.1204693), wk =   0.0073869
        k(  194) = (  -0.6315789   0.0607737  -0.1807039), wk =   0.0073869
        k(  195) = (  -0.6315789   0.0607737  -0.2409386), wk =   0.0073869
        k(  196) = (  -0.6315789  -0.0000000   0.0000000), wk =   0.0036934
        k(  197) = (  -0.6315789  -0.0000000  -0.0602346), wk =   0.0073869
        k(  198) = (  -0.6315789  -0.0000000  -0.1204693), wk =   0.0073869
        k(  199) = (  -0.6315789  -0.0000000  -0.1807039), wk =   0.0073869
        k(  200) = (  -0.6315789  -0.0000000  -0.2409386), wk =   0.0073869

                       cryst. coord.
        k(    1) = (   0.0000000   0.0000000   0.0000000), wk =   0.0006156
        k(    2) = (  -0.0000000   0.0000000   0.1111111), wk =   0.0012311
        k(    3) = (  -0.0000000   0.0000000   0.2222222), wk =   0.0012311
        k(    4) = (  -0.0000000   0.0000000   0.3333333), wk =   0.0012311
        k(    5) = (  -0.0000000   0.0000000   0.4444444), wk =   0.0012311
        k(    6) = (   0.0000000   0.0526316   0.0000000), wk =   0.0036934
        k(    7) = (   0.0000000   0.0526316   0.1111111), wk =   0.0073869
        k(    8) = (   0.0000000   0.0526316   0.2222222), wk =   0.0073869
        k(    9) = (   0.0000000   0.0526316   0.3333333), wk =   0.0073869
        k(   10) = (   0.0000000   0.0526316   0.4444444), wk =   0.0073869
        k(   11) = (   0.0000000   0.1052632   0.0000000), wk =   0.0036934
        k(   12) = (   0.0000000   0.1052632   0.1111111), wk =   0.0073869
        k(   13) = (   0.0000000   0.1052632   0.2222222), wk =   0.0073869
        k(   14) = (   0.0000000   0.1052632   0.3333333), wk =   0.0073869
        k(   15) = (   0.0000000   0.1052632   0.4444444), wk =   0.0073869
        k(   16) = (   0.0000000   0.1578947   0.0000000), wk =   0.0036934
        k(   17) = (   0.0000000   0.1578947   0.1111111), wk =   0.0073869
        k(   18) = (   0.0000000   0.1578947   0.2222222), wk =   0.0073869
        k(   19) = (   0.0000000   0.1578947   0.3333333), wk =   0.0073869
        k(   20) = (   0.0000000   0.1578947   0.4444444), wk =   0.0073869
        k(   21) = (   0.0000000   0.2105263   0.0000000), wk =   0.0036934
        k(   22) = (   0.0000000   0.2105263   0.1111111), wk =   0.0073869
        k(   23) = (   0.0000000   0.2105263   0.2222222), wk =   0.0073869
        k(   24) = (   0.0000000   0.2105263   0.3333333), wk =   0.0073869
        k(   25) = (   0.0000000   0.2105263   0.4444444), wk =   0.0073869
        k(   26) = (  -0.0000000   0.2631579   0.0000000), wk =   0.0036934
        k(   27) = (  -0.0000000   0.2631579   0.1111111), wk =   0.0073869
        k(   28) = (  -0.0000000   0.2631579   0.2222222), wk =   0.0073869
        k(   29) = (  -0.0000000   0.2631579   0.3333333), wk =   0.0073869
        k(   30) = (  -0.0000000   0.2631579   0.4444444), wk =   0.0073869
        k(   31) = (   0.0000000   0.3157895   0.0000000), wk =   0.0036934
        k(   32) = (   0.0000000   0.3157895   0.1111111), wk =   0.0073869
        k(   33) = (   0.0000000   0.3157895   0.2222222), wk =   0.0073869
        k(   34) = (   0.0000000   0.3157895   0.3333333), wk =   0.0073869
        k(   35) = (   0.0000000   0.3157895   0.4444444), wk =   0.0073869
        k(   36) = (   0.0000000   0.3684211   0.0000000), wk =   0.0036934
        k(   37) = (   0.0000000   0.3684211   0.1111111), wk =   0.0073869
        k(   38) = (   0.0000000   0.3684211   0.2222222), wk =   0.0073869
        k(   39) = (   0.0000000   0.3684211   0.3333333), wk =   0.0073869
        k(   40) = (   0.0000000   0.3684211   0.4444444), wk =   0.0073869
        k(   41) = (   0.0000000   0.4210526   0.0000000), wk =   0.0036934
        k(   42) = (   0.0000000   0.4210526   0.1111111), wk =   0.0073869
        k(   43) = (   0.0000000   0.4210526   0.2222222), wk =   0.0073869
        k(   44) = (   0.0000000   0.4210526   0.3333333), wk =   0.0073869
        k(   45) = (   0.0000000   0.4210526   0.4444444), wk =   0.0073869
        k(   46) = (   0.0000000   0.4736842   0.0000000), wk =   0.0036934
        k(   47) = (   0.0000000   0.4736842   0.1111111), wk =   0.0073869
        k(   48) = (   0.0000000   0.4736842   0.2222222), wk =   0.0073869
        k(   49) = (   0.0000000   0.4736842   0.3333333), wk =   0.0073869
        k(   50) = (   0.0000000   0.4736842   0.4444444), wk =   0.0073869
        k(   51) = (   0.0526316   0.0526316   0.0000000), wk =   0.0036934
        k(   52) = (   0.0526316   0.0526316   0.1111111), wk =   0.0073869
        k(   53) = (   0.0526316   0.0526316   0.2222222), wk =   0.0073869
        k(   54) = (   0.0526316   0.0526316   0.3333333), wk =   0.0073869
        k(   55) = (   0.0526316   0.0526316   0.4444444), wk =   0.0073869
        k(   56) = (   0.0526316   0.1052632   0.0000000), wk =   0.0073869
        k(   57) = (   0.0526316   0.1052632   0.1111111), wk =   0.0147738
        k(   58) = (   0.0526316   0.1052632   0.2222222), wk =   0.0147738
        k(   59) = (   0.0526316   0.1052632   0.3333333), wk =   0.0147738
        k(   60) = (   0.0526316   0.1052632   0.4444444), wk =   0.0147738
[...]
        k(  186) = (   0.2631579   0.3157895   0.0000000), wk =   0.0073869
        k(  187) = (   0.2631579   0.3157895   0.1111111), wk =   0.0147738
        k(  188) = (   0.2631579   0.3157895   0.2222222), wk =   0.0147738
        k(  189) = (   0.2631579   0.3157895   0.3333333), wk =   0.0147738
        k(  190) = (   0.2631579   0.3157895   0.4444444), wk =   0.0147738
        k(  191) = (   0.2631579   0.3684211   0.0000000), wk =   0.0036934
        k(  192) = (   0.2631579   0.3684211   0.1111111), wk =   0.0073869
        k(  193) = (   0.2631579   0.3684211   0.2222222), wk =   0.0073869
        k(  194) = (   0.2631579   0.3684211   0.3333333), wk =   0.0073869
        k(  195) = (   0.2631579   0.3684211   0.4444444), wk =   0.0073869
        k(  196) = (   0.3157895   0.3157895   0.0000000), wk =   0.0036934
        k(  197) = (   0.3157895   0.3157895   0.1111111), wk =   0.0073869
        k(  198) = (   0.3157895   0.3157895   0.2222222), wk =   0.0073869
        k(  199) = (   0.3157895   0.3157895   0.3333333), wk =   0.0073869
        k(  200) = (   0.3157895   0.3157895   0.4444444), wk =   0.0073869

     Initial potential from superposition of free atoms

     starting charge      39.9997, renormalised to      40.0000
     Starting wfcs are   26 randomized atomic wfcs

     Self-consistent Calculation

     iteration #  1     ecut=    40.00 Ry     beta= 0.40
     Davidson diagonalization with overlap

     ethr =  1.00E-02,  avg # of iterations =  2.8

     Threshold (ethr) on eigenvalues was too large:
     Diagonalizing with lowered threshold

     Davidson diagonalization with overlap

[...]

     total energy              =    -923.08814758 Ry
     estimated scf accuracy    <       0.06612297 Ry

[...]

     total energy              =    -923.10558622 Ry
     estimated scf accuracy    <          3.8E-09 Ry

     iteration # 10     ecut=    40.00 Ry     beta= 0.40
     Davidson diagonalization with overlap

     ethr =  9.60E-12,  avg # of iterations =  2.0

     End of self-consistent calculation

          k = 0.0000 0.0000 0.0000 (   871 PWs)   bands (ev):

  -112.9181-112.9170 -67.0776 -67.0644 -67.0527 -67.0527 -67.0512 -67.0512
     3.2105   5.0856   5.8013   6.0266   6.0266   6.0794   6.0794   6.4044
     6.4044   6.6238   6.6238  10.0355  10.7490  27.5566  31.0864  31.0864

     occupation numbers
     1.0000   1.0000   1.0000   1.0000   1.0000   1.0000   1.0000   1.0000
     1.0000   1.0000   1.0000   1.0000   1.0000   1.0000   1.0000   1.0000
     1.0000   1.0000   1.0000   1.0000   1.0000   0.0000   0.0000   0.0000

[...]

          k = 0.0000 0.0000-0.2409 (   858 PWs)   bands (ev):

[...]

          k =-0.0526 0.0304 0.0000 (   857 PWs)   bands (ev):

[...]

          k =-0.6316-0.0000-0.2409 (   888 PWs)   bands (ev):

  -112.9146-112.9146 -67.0744 -67.0744 -67.0714 -67.0710 -67.0660 -67.0659
     5.7318   5.7422   5.8592   5.8813   6.0383   6.0650   6.2397   6.2693
     6.6125   6.6271  13.8379  14.3581  15.5646  15.6593  16.3246  16.4024

     occupation numbers
     1.0000   1.0000   1.0000   1.0000   1.0000   1.0000   1.0000   1.0000
     1.0000   1.0000   1.0000   1.0000   1.0000   1.0000   1.0000   1.0000
     1.0000   1.0000   0.1847   0.0001   0.0000   0.0000   0.0000   0.0000

     the Fermi energy is    13.7346 ev

!    total energy              =    -923.10558622 Ry
     estimated scf accuracy    <          1.2E-10 Ry
     smearing contrib. (-TS)   =      -0.00006342 Ry
     internal energy E=F+TS    =    -923.10552280 Ry

     The total energy is F=E-TS. E is the sum of the following terms:
     one-electron contribution =    -719.32163203 Ry
     hartree contribution      =     374.54142158 Ry
     xc contribution           =     -84.37257285 Ry
     ewald contribution        =    -493.95273950 Ry

     convergence has been achieved in  10 iterations

     Forces acting on atoms (cartesian axes, Ry/au):

     atom    1 type  1   force =     0.00000000    0.00000000    0.00000000
     atom    2 type  1   force =     0.00000000    0.00000000    0.00000000
     The non-local contrib.  to forces
     atom    1 type  1   force =    -0.00000000   -0.00000000    0.00000000
     atom    2 type  1   force =     0.00000000   -0.00000000    0.00000000
     The ionic contribution  to forces
     atom    1 type  1   force =    -0.00000000   -0.00000000    0.00000000
     atom    2 type  1   force =     0.00000000    0.00000000   -0.00000000
     The local contribution  to forces
     atom    1 type  1   force =    -0.00000001    0.00000008   -0.00000005
     atom    2 type  1   force =    -0.00000001   -0.00000028   -0.00000005
     The core correction contribution to forces
     atom    1 type  1   force =     0.00000000    0.00000000    0.00000000
     atom    2 type  1   force =     0.00000000    0.00000000    0.00000000
     The Hubbard contrib.    to forces
     atom    1 type  1   force =     0.00000000    0.00000000    0.00000000
     atom    2 type  1   force =     0.00000000    0.00000000    0.00000000
     The SCF correction term to forces
     atom    1 type  1   force =    -0.00000000    0.00000000   -0.00000000
     atom    2 type  1   force =    -0.00000000   -0.00000000   -0.00000000

     Total force =     0.000000     Total SCF correction =     0.000000

     Computing stress (Cartesian axis) and pressure

          total   stress  (Ry/bohr**3)                   (kbar)     P=        2.79
   0.00002228   0.00000000  -0.00000000            3.28        0.00       -0.00
  -0.00000000   0.00002228  -0.00000000           -0.00        3.28       -0.00
   0.00000000   0.00000000   0.00001226            0.00        0.00        1.80

     kinetic stress (kbar)  38794.62     -0.00      0.00
                                0.00  38794.62      0.00
                                0.00      0.00  38916.49

     local   stress (kbar)    736.77     -0.00      0.00
                               -0.00    736.77     -0.00
                                0.00     -0.00  39502.89

     nonloc. stress (kbar)  -4095.19     -0.00     -0.00
                               -0.00  -4095.19      0.00
                                0.00      0.00  -4184.93

     hartree stress (kbar)  95858.50     -0.00     -0.00
                               -0.00  95858.50      0.00
                               -0.00      0.00  79343.98

     exc-cor stress (kbar) -19556.05      0.00      0.00
                                0.00 -19556.05      0.00
                                0.00      0.00 -19566.72

     corecor stress (kbar)      0.00      0.00      0.00
                                0.00      0.00      0.00
                                0.00      0.00      0.00

     ewald   stress (kbar)-111735.38     -0.00      0.00
                               -0.00-111735.38     -0.00
                                0.00     -0.00-134009.91

     hubbard stress (kbar)      0.00      0.00      0.00
                                0.00      0.00      0.00
                                0.00      0.00      0.00

     DFT-D   stress (kbar)      0.00      0.00      0.00
                                0.00      0.00      0.00
                                0.00      0.00      0.00

     XDM     stress (kbar)      0.00      0.00      0.00
                                0.00      0.00      0.00
                                0.00      0.00      0.00

     dft-nl  stress (kbar)      0.00      0.00      0.00
                                0.00      0.00      0.00
                                0.00      0.00      0.00

     TS-vdW  stress (kbar)      0.00      0.00      0.00
                                0.00      0.00      0.00
                                0.00      0.00      0.00

     MDB     stress (kbar)      0.00      0.00      0.00
                                0.00      0.00      0.00
                                0.00      0.00      0.00

     3D-RISM stress (kbar)      0.00      0.00      0.00
                                0.00      0.00      0.00
                                0.00      0.00      0.00

     Writing all to output data dir ../out/aiida.save/ :
     XML data file, charge density, pseudopotentials, collected wavefunctions

     General routines
                                        0.13s GPU  (     139 calls)
                                        0.01s GPU  (      11 calls)
                                       22.38s GPU  (   28440 calls)

     Parallel routines

   This run was terminated on:  16:12:21   9Apr2025

   JOB DONE.