     Program PWSCF v.7.4 starts on  7Mar2025 at  2:20:29

     Waiting for input...
     Reading input from standard input
Warning: card &CELL ignored
Warning: card CELL_DYNAMICS = 'BFGS' ignored
Warning: card PRESS_CONV_THR= 0.05 ignored
Warning: card CELL_DOFREE = 'ALL' ignored
Warning: card / ignored

     Current dimensions of program PWSCF are:
     Max number of different atomic species (ntypx) = 10
     Max number of k-points (npk) =  40000
     Max angular momentum in pseudopotentials (lmaxx) =  4
     file Pb.pbe-dn-kjpaw_psl.0.2.2.UPF: wavefunction(s)  6S renormalized

     R & G space division:  proc/nbgrp/npool/nimage =       6
     Subspace diagonalization in iterative solution of the eigenvalue problem:
     a serial algorithm will be used

     Using Slab Decomposition

     bravais-lattice index     =            1
     lattice parameter (alat)  =      23.5367  a.u.
     unit-cell volume          =   13038.7884 (a.u.)^3
     number of atoms/cell      =           39
     number of atomic types    =            3
     number of electrons       =       338.00
     number of Kohn-Sham states=          203
     kinetic-energy cutoff     =      40.0000  Ry
     charge density cutoff     =     320.0000  Ry
     scf convergence threshold =      1.4E-09
     mixing beta               =       0.4000
     number of iterations used =            8  plain     mixing
     Exchange-correlation= SLA  PW   PBX  PBC
                           (   1   4   3   4   0   0   0)

     Message from routine print_cuda_info:
     High GPU oversubscription detected. Are you sure this is what you want?

     GPU used by master process:

        Device Number: 0
        Compute capability : 86
        Ratio of single to double precision performance  : 32

     celldm(1)=  23.536709  celldm(2)=   0.000000  celldm(3)=   0.000000
     celldm(4)=   0.000000  celldm(5)=   0.000000  celldm(6)=   0.000000

     crystal axes: (cart. coord. in units of alat)
               a(1) = (   1.000000   0.000000   0.000000 )
               a(2) = (   0.000000   1.000000   0.000000 )
               a(3) = (   0.000000   0.000000   1.000000 )

     reciprocal axes: (cart. coord. in units 2 pi/alat)
               b(1) = (  1.000000  0.000000  0.000000 )
               b(2) = (  0.000000  1.000000  0.000000 )
               b(3) = (  0.000000  0.000000  1.000000 )

     PseudoPot. # 1 for Cs read from file:
     ../pseudo/Cs_pbe_v1.uspp.F.UPF
     MD5 check sum: 3476d69cb178dfad3ffaa59df4e07ca4
     Pseudo is Ultrasoft + core correction, Zval =  9.0
     Generated by new atomic code, or converted to UPF format
     Using radial grid of  905 points,  6 beta functions with:
                l(1) =   0
                l(2) =   0
                l(3) =   1
                l(4) =   1
                l(5) =   2
                l(6) =   2
     Q(r) pseudized with  6 coefficients,  rinner =    1.500   1.500   1.500
                                                       1.500   1.500

     PseudoPot. # 2 for I  read from file:
     ../pseudo/I.pbe-n-kjpaw_psl.0.2.UPF
     MD5 check sum: d4ef18d9c8f18dc85e5843bca1e50dc0
     Pseudo is Projector augmented-wave + core cor, Zval =  7.0
     Generated using "atomic" code by A. Dal Corso  v.5.0.99 svn rev. 10869
     Shape of augmentation charge: PSQ
     Using radial grid of 1247 points,  4 beta functions with:
                l(1) =   0
                l(2) =   0
                l(3) =   1
                l(4) =   1
     Q(r) pseudized with 0 coefficients

     PseudoPot. # 3 for Pb read from file:
     ../pseudo/Pb.pbe-dn-kjpaw_psl.0.2.2.UPF
     MD5 check sum: 9d431e6316058b74ade52399a6cf67da
     Pseudo is Projector augmented-wave + core cor, Zval = 14.0
     Generated using "atomic" code by A. Dal Corso  v.5.0.99 svn rev. 10869
     Shape of augmentation charge: PSQ
     Using radial grid of 1281 points,  6 beta functions with:
                l(1) =   0
                l(2) =   0
                l(3) =   1
                l(4) =   1
                l(5) =   2
                l(6) =   2
     Q(r) pseudized with 0 coefficients

     atomic species   valence    mass     pseudopotential
     Cs                9.00   132.90545     Cs( 1.00)
     I                 7.00   126.90447     I ( 1.00)
     Pb               14.00   207.20000     Pb( 1.00)

     48 Sym. Ops., with inversion, found

                                    s                        frac. trans.

      isym =  1     identity

 cryst.   s( 1) = (     1          0          0      )
                  (     0          1          0      )
                  (     0          0          1      )

 cart.    s( 1) = (  1.0000000  0.0000000  0.0000000 )
                  (  0.0000000  1.0000000  0.0000000 )
                  (  0.0000000  0.0000000  1.0000000 )

      isym =  2     180 deg rotation - cart. axis [0,0,1]

[...]

 cryst.   s( 9) = (     0          0          1      )
                  (     0         -1          0      )
                  (     1          0          0      )

 cart.    s( 9) = (  0.0000000  0.0000000  1.0000000 )
                  (  0.0000000 -1.0000000  0.0000000 )
                  (  1.0000000  0.0000000  0.0000000 )

[...]

 cryst.   s(10) = (     0          0         -1      )
                  (     0         -1          0      )
                  (    -1          0          0      )

 cart.    s(10) = (  0.0000000  0.0000000 -1.0000000 )
                  (  0.0000000 -1.0000000  0.0000000 )
                  ( -1.0000000  0.0000000  0.0000000 )

[...]

      isym = 24     120 deg rotation - cart. axis [-1,-1,1]

[...]

      isym = 25     inversion

[...]

      isym = 26     inv. 180 deg rotation - cart. axis [0,0,1]

[...]

      isym = 48     inv. 120 deg rotation - cart. axis [-1,-1,1]

 cryst.   s(48) = (     0         -1          0      )
                  (     0          0          1      )
                  (     1          0          0      )

 cart.    s(48) = (  0.0000000  0.0000000  1.0000000 )
                  ( -1.0000000  0.0000000  0.0000000 )
                  (  0.0000000  1.0000000  0.0000000 )

     point group O_h (m-3m)
     there are 10 classes
     the character table:

       E     8C3   3C2   6C4   6C2'  i     8S6   3s_h  6S4   6s_d
A_1g   1.00  1.00  1.00  1.00  1.00  1.00  1.00  1.00  1.00  1.00
A_2g   1.00  1.00  1.00 -1.00 -1.00  1.00  1.00  1.00 -1.00 -1.00
E_g    2.00 -1.00  2.00  0.00  0.00  2.00 -1.00  2.00  0.00  0.00
T_1g   3.00  0.00 -1.00  1.00 -1.00  3.00  0.00 -1.00  1.00 -1.00
T_2g   3.00  0.00 -1.00 -1.00  1.00  3.00  0.00 -1.00 -1.00  1.00
A_1u   1.00  1.00  1.00  1.00  1.00 -1.00 -1.00 -1.00 -1.00 -1.00
A_2u   1.00  1.00  1.00 -1.00 -1.00 -1.00 -1.00 -1.00  1.00  1.00
E_u    2.00 -1.00  2.00  0.00  0.00 -2.00  1.00 -2.00  0.00  0.00
T_1u   3.00  0.00 -1.00  1.00 -1.00 -3.00  0.00  1.00 -1.00  1.00
T_2u   3.00  0.00 -1.00 -1.00  1.00 -3.00  0.00  1.00  1.00 -1.00

     the symmetry operations in each class and the name of the first element:

     E        1
          identity
     8C3     17   19   20   18   24   21   22   23
          120 deg rotation - cart. axis [-1,-1,-1]
     3C2      2    4    3
          180 deg rotation - cart. axis [0,0,1]
     6C4      7    8   15   16   12   11
           90 deg rotation - cart. axis [0,0,-1]
     6C2'     5    6   14   13   10    9
          180 deg rotation - cart. axis [1,1,0]
     i       25
          inversion
     8S6     41   43   44   42   48   45   46   47
          inv. 120 deg rotation - cart. axis [-1,-1,-1]
     3s_h    26   28   27
          inv. 180 deg rotation - cart. axis [0,0,1]
     6S4     31   32   39   40   36   35
          inv.  90 deg rotation - cart. axis [0,0,-1]
     6s_d    29   30   38   37   34   33
          inv. 180 deg rotation - cart. axis [1,1,0]

   Cartesian axes

     site n.     atom                  positions (alat units)
         1        Cs     tau(   1) = (   0.2413930   0.2413930   0.2413930  )
         2        Cs     tau(   2) = (   0.7586070   0.2413930   0.7586070  )
         3        Cs     tau(   3) = (   0.2413930   0.7586070   0.7586070  )
         4        Cs     tau(   4) = (   0.7586070   0.7586070   0.2413930  )
         5        Cs     tau(   5) = (   0.2413930   0.2413930   0.7586070  )
         6        Cs     tau(   6) = (   0.2413930   0.7586070   0.2413930  )
         7        Cs     tau(   7) = (   0.7586070   0.2413930   0.2413930  )
         8        Cs     tau(   8) = (   0.7586070   0.7586070   0.7586070  )
         9        Pb     tau(   9) = (   0.5000000   0.0000000   0.0000000  )
        10        Pb     tau(  10) = (   0.0000000   0.0000000   0.5000000  )
        11        Pb     tau(  11) = (   0.0000000   0.5000000   0.0000000  )
        12        Pb     tau(  12) = (   0.5000000   0.0000000   0.5000000  )
        13        Pb     tau(  13) = (   0.0000000   0.5000000   0.5000000  )
        14        Pb     tau(  14) = (   0.5000000   0.5000000   0.0000000  )
        15        Pb     tau(  15) = (   0.5000000   0.5000000   0.5000000  )
        16        I      tau(  16) = (   0.7524150   0.0000000   0.0000000  )
        17        I      tau(  17) = (   0.2475850   0.0000000   0.0000000  )
        18        I      tau(  18) = (   0.0000000   0.0000000   0.2475850  )
        19        I      tau(  19) = (   0.0000000   0.0000000   0.7524150  )
        20        I      tau(  20) = (   0.0000000   0.7524150   0.0000000  )
        21        I      tau(  21) = (   0.0000000   0.2475850   0.0000000  )
        22        I      tau(  22) = (   0.5000000   0.0000000   0.2500130  )
        23        I      tau(  23) = (   0.5000000   0.0000000   0.7499870  )
        24        I      tau(  24) = (   0.2500130   0.5000000   0.0000000  )
        25        I      tau(  25) = (   0.7499870   0.5000000   0.0000000  )
        26        I      tau(  26) = (   0.0000000   0.2500130   0.5000000  )
        27        I      tau(  27) = (   0.0000000   0.7499870   0.5000000  )
        28        I      tau(  28) = (   0.0000000   0.5000000   0.7499870  )
        29        I      tau(  29) = (   0.0000000   0.5000000   0.2500130  )
        30        I      tau(  30) = (   0.5000000   0.2500130   0.0000000  )
        31        I      tau(  31) = (   0.5000000   0.7499870   0.0000000  )
        32        I      tau(  32) = (   0.2500130   0.0000000   0.5000000  )
        33        I      tau(  33) = (   0.7499870   0.0000000   0.5000000  )
        34        I      tau(  34) = (   0.5000000   0.7500680   0.5000000  )
        35        I      tau(  35) = (   0.5000000   0.2499320   0.5000000  )
        36        I      tau(  36) = (   0.7500680   0.5000000   0.5000000  )
        37        I      tau(  37) = (   0.2499320   0.5000000   0.5000000  )
        38        I      tau(  38) = (   0.5000000   0.5000000   0.2499320  )
        39        I      tau(  39) = (   0.5000000   0.5000000   0.7500680  )

   Crystallographic axes

     site n.     atom                  positions (cryst. coord.)
         1        Cs     tau(   1) = (  0.2413930  0.2413930  0.2413930  )
         2        Cs     tau(   2) = (  0.7586070  0.2413930  0.7586070  )
[...]
     atom   22 type  2   force =     0.00000000   -0.00000000   -0.30719219
     atom   23 type  2   force =    -0.00000000    0.00000000    0.30719219
     atom   24 type  2   force =    -0.30719219    0.00000000    0.00000000
     atom   25 type  2   force =     0.30719219   -0.00000000   -0.00000000
     atom   26 type  2   force =    -0.00000000   -0.30719219    0.00000000
     atom   27 type  2   force =    -0.00000000    0.30719219   -0.00000000
     atom   28 type  2   force =    -0.00000000   -0.00000000    0.30719219
     atom   29 type  2   force =    -0.00000000    0.00000000   -0.30719219
     atom   30 type  2   force =     0.00000000   -0.30719219    0.00000000
     atom   31 type  2   force =    -0.00000000    0.30719219   -0.00000000
     atom   32 type  2   force =    -0.30719219    0.00000000    0.00000000
     atom   33 type  2   force =     0.30719219   -0.00000000   -0.00000000
     atom   34 type  2   force =     0.00000000    0.00521419   -0.00000000
     atom   35 type  2   force =    -0.00000000   -0.00521419    0.00000000
     atom   36 type  2   force =     0.00521419    0.00000000    0.00000000
     atom   37 type  2   force =    -0.00521419   -0.00000000    0.00000000
     atom   38 type  2   force =     0.00000000    0.00000000   -0.00521419
     atom   39 type  2   force =     0.00000000   -0.00000000    0.00521419
     The local contribution  to forces
     atom    1 type  1   force =     0.54566094    0.54566094    0.54566094
     atom    2 type  1   force =    -0.54566094    0.54566094   -0.54566094
     atom    3 type  1   force =     0.54566094   -0.54566094   -0.54566094
     atom    4 type  1   force =    -0.54566094   -0.54566094    0.54566094
     atom    5 type  1   force =     0.54566094    0.54566094   -0.54566094
     atom    6 type  1   force =     0.54566094   -0.54566094    0.54566094
     atom    7 type  1   force =    -0.54566094    0.54566094    0.54566094
     atom    8 type  1   force =    -0.54566094   -0.54566094   -0.54566094
     atom    9 type  3   force =     0.00000000    0.00000000    0.00000000
     atom   10 type  3   force =     0.00000000    0.00000000    0.00000000
     atom   11 type  3   force =     0.00000000    0.00000000    0.00000000
     atom   12 type  3   force =     0.00000000    0.00000000    0.00000000
     atom   13 type  3   force =     0.00000000    0.00000000    0.00000000
     atom   14 type  3   force =     0.00000000    0.00000000    0.00000000
     atom   15 type  3   force =     0.00000000    0.00000000    0.00000000
     atom   16 type  2   force =    -4.65627703    0.00000000    0.00000000
     atom   17 type  2   force =     4.65627703    0.00000000    0.00000000
     atom   18 type  2   force =     0.00000000   -0.00000000    4.65627703
     atom   19 type  2   force =    -0.00000000    0.00000000   -4.65627703
     atom   20 type  2   force =     0.00000000   -4.65627703    0.00000000
     atom   21 type  2   force =     0.00000000    4.65627703    0.00000000
     atom   22 type  2   force =     0.00000000    0.00000000    0.30664563
     atom   23 type  2   force =     0.00000000    0.00000000   -0.30664563
     atom   24 type  2   force =     0.30664563    0.00000000    0.00000000
     atom   25 type  2   force =    -0.30664563    0.00000000    0.00000000
     atom   26 type  2   force =     0.00000000    0.30664563    0.00000000
     atom   27 type  2   force =    -0.00000000   -0.30664563    0.00000000
     atom   28 type  2   force =     0.00000000    0.00000000   -0.30664563
     atom   29 type  2   force =     0.00000000    0.00000000    0.30664563
     atom   30 type  2   force =     0.00000000    0.30664563    0.00000000
     atom   31 type  2   force =     0.00000000   -0.30664563    0.00000000
     atom   32 type  2   force =     0.30664563   -0.00000000    0.00000000
     atom   33 type  2   force =    -0.30664563    0.00000000    0.00000000
     atom   34 type  2   force =     0.00000000   -0.00599742    0.00000000
     atom   35 type  2   force =     0.00000000    0.00599742    0.00000000
     atom   36 type  2   force =    -0.00599742   -0.00000000    0.00000000
     atom   37 type  2   force =     0.00599742    0.00000000    0.00000000
     atom   38 type  2   force =     0.00000000    0.00000000    0.00599742
     atom   39 type  2   force =     0.00000000    0.00000000   -0.00599742
     The core correction contribution to forces
     atom    1 type  1   force =    -0.00042037   -0.00042037   -0.00042037
     atom    2 type  1   force =     0.00042037   -0.00042037    0.00042037
     atom    3 type  1   force =    -0.00042037    0.00042037    0.00042037
     atom    4 type  1   force =     0.00042037    0.00042037   -0.00042037
     atom    5 type  1   force =    -0.00042037   -0.00042037    0.00042037
     atom    6 type  1   force =    -0.00042037    0.00042037   -0.00042037
     atom    7 type  1   force =     0.00042037   -0.00042037   -0.00042037
     atom    8 type  1   force =     0.00042037    0.00042037    0.00042037
     atom    9 type  3   force =    -0.00000000   -0.00000000   -0.00000000
     atom   10 type  3   force =    -0.00000000   -0.00000000   -0.00000000
     atom   11 type  3   force =    -0.00000000   -0.00000000   -0.00000000
     atom   12 type  3   force =    -0.00000000    0.00000000   -0.00000000
     atom   13 type  3   force =     0.00000000   -0.00000000   -0.00000000
     atom   14 type  3   force =    -0.00000000   -0.00000000    0.00000000
     atom   15 type  3   force =     0.00000000    0.00000000    0.00000000
     atom   16 type  2   force =     0.00840055    0.00000000    0.00000000
     atom   17 type  2   force =    -0.00840055    0.00000000    0.00000000
     atom   18 type  2   force =     0.00000000    0.00000000   -0.00840055
     atom   19 type  2   force =     0.00000000    0.00000000    0.00840055
     atom   20 type  2   force =     0.00000000    0.00840055    0.00000000
     atom   21 type  2   force =     0.00000000   -0.00840055    0.00000000
     atom   22 type  2   force =    -0.00000000    0.00000000   -0.00003270
     atom   23 type  2   force =     0.00000000    0.00000000    0.00003270
     atom   24 type  2   force =    -0.00003270   -0.00000000    0.00000000
     atom   25 type  2   force =     0.00003270    0.00000000    0.00000000
     atom   26 type  2   force =     0.00000000   -0.00003270   -0.00000000
     atom   27 type  2   force =     0.00000000    0.00003270    0.00000000
     atom   28 type  2   force =     0.00000000    0.00000000    0.00003270
     atom   29 type  2   force =     0.00000000   -0.00000000   -0.00003270
     atom   30 type  2   force =    -0.00000000   -0.00003270    0.00000000
     atom   31 type  2   force =     0.00000000    0.00003270    0.00000000
     atom   32 type  2   force =    -0.00003270    0.00000000   -0.00000000
     atom   33 type  2   force =     0.00003270    0.00000000    0.00000000
     atom   34 type  2   force =    -0.00000000   -0.00005789   -0.00000000
     atom   35 type  2   force =     0.00000000    0.00005789   -0.00000000
     atom   36 type  2   force =    -0.00005789   -0.00000000   -0.00000000
     atom   37 type  2   force =     0.00005789    0.00000000   -0.00000000
     atom   38 type  2   force =    -0.00000000   -0.00000000    0.00005789
     atom   39 type  2   force =    -0.00000000   -0.00000000   -0.00005789
     The Hubbard contrib.    to forces
     atom    1 type  1   force =     0.00000000    0.00000000    0.00000000
     atom    2 type  1   force =     0.00000000    0.00000000    0.00000000
     atom    3 type  1   force =     0.00000000    0.00000000    0.00000000
     atom    4 type  1   force =     0.00000000    0.00000000    0.00000000
     atom    5 type  1   force =     0.00000000    0.00000000    0.00000000
     atom    6 type  1   force =     0.00000000    0.00000000    0.00000000
     atom    7 type  1   force =     0.00000000    0.00000000    0.00000000
     atom    8 type  1   force =     0.00000000    0.00000000    0.00000000
     atom    9 type  3   force =     0.00000000    0.00000000    0.00000000
     atom   10 type  3   force =     0.00000000    0.00000000    0.00000000
     atom   11 type  3   force =     0.00000000    0.00000000    0.00000000
     atom   12 type  3   force =     0.00000000    0.00000000    0.00000000
     atom   13 type  3   force =     0.00000000    0.00000000    0.00000000
     atom   14 type  3   force =     0.00000000    0.00000000    0.00000000
     atom   15 type  3   force =     0.00000000    0.00000000    0.00000000
     atom   16 type  2   force =     0.00000000    0.00000000    0.00000000
     atom   17 type  2   force =     0.00000000    0.00000000    0.00000000
     atom   18 type  2   force =     0.00000000    0.00000000    0.00000000
     atom   19 type  2   force =     0.00000000    0.00000000    0.00000000
     atom   20 type  2   force =     0.00000000    0.00000000    0.00000000
     atom   21 type  2   force =     0.00000000    0.00000000    0.00000000
     atom   22 type  2   force =     0.00000000    0.00000000    0.00000000
     atom   23 type  2   force =     0.00000000    0.00000000    0.00000000
     atom   24 type  2   force =     0.00000000    0.00000000    0.00000000
     atom   25 type  2   force =     0.00000000    0.00000000    0.00000000
     atom   26 type  2   force =     0.00000000    0.00000000    0.00000000
     atom   27 type  2   force =     0.00000000    0.00000000    0.00000000
     atom   28 type  2   force =     0.00000000    0.00000000    0.00000000
     atom   29 type  2   force =     0.00000000    0.00000000    0.00000000
     atom   30 type  2   force =     0.00000000    0.00000000    0.00000000
     atom   31 type  2   force =     0.00000000    0.00000000    0.00000000
     atom   32 type  2   force =     0.00000000    0.00000000    0.00000000
     atom   33 type  2   force =     0.00000000    0.00000000    0.00000000
     atom   34 type  2   force =     0.00000000    0.00000000    0.00000000
     atom   35 type  2   force =     0.00000000    0.00000000    0.00000000
     atom   36 type  2   force =     0.00000000    0.00000000    0.00000000
     atom   37 type  2   force =     0.00000000    0.00000000    0.00000000
     atom   38 type  2   force =     0.00000000    0.00000000    0.00000000
     atom   39 type  2   force =     0.00000000    0.00000000    0.00000000
     The SCF correction term to forces
     atom    1 type  1   force =    -0.00000360   -0.00000360   -0.00000360
     atom    2 type  1   force =     0.00000360   -0.00000360    0.00000360
     atom    3 type  1   force =    -0.00000360    0.00000360    0.00000360
     atom    4 type  1   force =     0.00000360    0.00000360   -0.00000360
     atom    5 type  1   force =    -0.00000360   -0.00000360    0.00000360
     atom    6 type  1   force =    -0.00000360    0.00000360   -0.00000360
     atom    7 type  1   force =     0.00000360   -0.00000360   -0.00000360
     atom    8 type  1   force =     0.00000360    0.00000360    0.00000360
     atom    9 type  3   force =    -0.00000000    0.00000000    0.00000000
     atom   10 type  3   force =    -0.00000000   -0.00000000   -0.00000000
     atom   11 type  3   force =    -0.00000000    0.00000000    0.00000000
     atom   12 type  3   force =     0.00000000   -0.00000000   -0.00000000
     atom   13 type  3   force =     0.00000000    0.00000000   -0.00000000
     atom   14 type  3   force =    -0.00000000    0.00000000    0.00000000
     atom   15 type  3   force =     0.00000000    0.00000000   -0.00000000
     atom   16 type  2   force =     0.00000319   -0.00000000   -0.00000000
     atom   17 type  2   force =    -0.00000319   -0.00000000   -0.00000000
     atom   18 type  2   force =    -0.00000000   -0.00000000   -0.00000319
     atom   19 type  2   force =    -0.00000000    0.00000000    0.00000319
     atom   20 type  2   force =     0.00000000    0.00000319   -0.00000000
     atom   21 type  2   force =    -0.00000000   -0.00000319   -0.00000000
     atom   22 type  2   force =    -0.00000000   -0.00000000   -0.00000175
     atom   23 type  2   force =    -0.00000000   -0.00000000    0.00000175
     atom   24 type  2   force =    -0.00000175   -0.00000000   -0.00000000
     atom   25 type  2   force =     0.00000175   -0.00000000   -0.00000000
     atom   26 type  2   force =    -0.00000000   -0.00000175    0.00000000
     atom   27 type  2   force =     0.00000000    0.00000175    0.00000000
     atom   28 type  2   force =     0.00000000    0.00000000    0.00000175
     atom   29 type  2   force =     0.00000000   -0.00000000   -0.00000175
     atom   30 type  2   force =    -0.00000000   -0.00000175    0.00000000
     atom   31 type  2   force =    -0.00000000    0.00000175    0.00000000
     atom   32 type  2   force =    -0.00000175    0.00000000    0.00000000
     atom   33 type  2   force =     0.00000175    0.00000000    0.00000000
     atom   34 type  2   force =     0.00000000    0.00000369    0.00000000
     atom   35 type  2   force =     0.00000000   -0.00000369    0.00000000
     atom   36 type  2   force =     0.00000369    0.00000000    0.00000000
     atom   37 type  2   force =    -0.00000369    0.00000000    0.00000000
     atom   38 type  2   force =     0.00000000   -0.00000000   -0.00000369
     atom   39 type  2   force =     0.00000000    0.00000000    0.00000369

     Total force =     0.000289     Total SCF correction =     0.000022

     Computing stress (Cartesian axis) and pressure

          total   stress  (Ry/bohr**3)                   (kbar)     P=       -0.15
  -0.00000100   0.00000000   0.00000000           -0.15        0.00        0.00
   0.00000000  -0.00000100   0.00000000            0.00       -0.15        0.00
   0.00000000   0.00000000  -0.00000100            0.00        0.00       -0.15

     kinetic stress (kbar)   3482.12      0.00      0.00
                                0.00   3482.12      0.00
                                0.00      0.00   3482.12

     local   stress (kbar)   -272.88      0.00     -0.00
                                0.00   -272.88     -0.00
                               -0.00     -0.00   -272.88

     nonloc. stress (kbar)    947.76      0.00      0.00
                                0.00    947.76      0.00
                                0.00      0.00    947.76

     hartree stress (kbar)   1881.34      0.00      0.00
                                0.00   1881.34     -0.00
                                0.00     -0.00   1881.34

     exc-cor stress (kbar)  12688.19     -0.00     -0.00
                               -0.00  12688.19     -0.00
                               -0.00     -0.00  12688.19

     corecor stress (kbar) -14317.59      0.00      0.00
                                0.00 -14317.59      0.00
                                0.00      0.00 -14317.59

     ewald   stress (kbar)  -4409.10     -0.00     -0.00
                               -0.00  -4409.10     -0.00
                               -0.00     -0.00  -4409.10

     hubbard stress (kbar)      0.00      0.00      0.00
                                0.00      0.00      0.00
                                0.00      0.00      0.00

     DFT-D   stress (kbar)      0.00      0.00      0.00
                                0.00      0.00      0.00
                                0.00      0.00      0.00

     XDM     stress (kbar)      0.00      0.00      0.00
                                0.00      0.00      0.00
                                0.00      0.00      0.00

     dft-nl  stress (kbar)      0.00      0.00      0.00
                                0.00      0.00      0.00
                                0.00      0.00      0.00

     TS-vdW  stress (kbar)      0.00      0.00      0.00
                                0.00      0.00      0.00
                                0.00      0.00      0.00

     MDB     stress (kbar)      0.00      0.00      0.00
                                0.00      0.00      0.00
                                0.00      0.00      0.00

     3D-RISM stress (kbar)      0.00      0.00      0.00
                                0.00      0.00      0.00
                                0.00      0.00      0.00

     Writing all to output data dir ../out/CsPbI3_Pb_vac.save/ :
     XML data file, charge density, pseudopotentials, collected wavefunctions

     General routines
                                        1.23s GPU  (     216 calls)
                                        0.05s GPU  (      16 calls)
                                      190.00s GPU  (   14146 calls)

     Parallel routines

     PAW routines

   This run was terminated on:   2:48:31   7Mar2025

   JOB DONE.