     Program PWSCF v.7.4 starts on 12Jun2025 at 15:45:10

     Waiting for input...
     Reading input from standard input

     Current dimensions of program PWSCF are:
     Max number of different atomic species (ntypx) = 10
     Max number of k-points (npk) =  40000
     Max angular momentum in pseudopotentials (lmaxx) =  4
     Message from routine setup:
     using ibrav=0 with symmetry is DISCOURAGED, use correct ibrav instead

     R & G space division:  proc/nbgrp/npool/nimage =       4
     Subspace diagonalization in iterative solution of the eigenvalue problem:
     a serial algorithm will be used

     Using Slab Decomposition

     bravais-lattice index     =            0
     lattice parameter (alat)  =       4.6714  a.u.
     unit-cell volume          =     143.6064 (a.u.)^3
     number of atoms/cell      =            2
     number of atomic types    =            1
     number of electrons       =        34.00
     number of Kohn-Sham states=           21
     kinetic-energy cutoff     =      45.0000  Ry
     charge density cutoff     =     360.0000  Ry
     scf convergence threshold =      4.0E-10
     mixing beta               =       0.4000
     number of iterations used =            8  plain     mixing
     Exchange-correlation= SLA  PW   PBE  PBE
                           (   1   4   3   4   0   0   0)

     celldm(1)=   4.671403  celldm(2)=   0.000000  celldm(3)=   0.000000
     celldm(4)=   0.000000  celldm(5)=   0.000000  celldm(6)=   0.000000

     crystal axes: (cart. coord. in units of alat)
               a(1) = (   1.000000   0.000000   0.000000 )
               a(2) = (  -0.500000   0.866025   0.000000 )
               a(3) = (   0.000000   0.000000   1.626676 )

     reciprocal axes: (cart. coord. in units 2 pi/alat)
               b(1) = (  1.000000  0.577350 -0.000000 )
               b(2) = (  0.000000  1.154701  0.000000 )
               b(3) = (  0.000000 -0.000000  0.614750 )

     PseudoPot. # 1 for Co read from file:
     ../pseudo/Co_pbe_v1.2.uspp.F.UPF
     MD5 check sum: 5f91765df6ddd3222702df6e7b74a16d
     Pseudo is Ultrasoft + core correction, Zval = 17.0
     Generated by new atomic code, or converted to UPF format
     Using radial grid of  863 points,  6 beta functions with:
                l(1) =   0
                l(2) =   0
                l(3) =   1
                l(4) =   1
                l(5) =   2
                l(6) =   2
     Q(r) pseudized with  8 coefficients,  rinner =    1.200   1.200   1.200
                                                       1.200   1.200

     atomic species   valence    mass     pseudopotential
     Co               17.00    58.93319     Co( 1.00)

     Starting magnetic structure
     atomic species   magnetization
     Co              0.294

     24 Sym. Ops., with inversion, found (12 have fractional translation)

                                    s                        frac. trans.

      isym =  1     identity

 cryst.   s( 1) = (     1          0          0      )
                  (     0          1          0      )
                  (     0          0          1      )

 cart.    s( 1) = (  1.0000000  0.0000000  0.0000000 )
                  (  0.0000000  1.0000000  0.0000000 )
                  (  0.0000000  0.0000000  1.0000000 )

      isym =  2     180 deg rotation - cart. axis [0,0,1]

 cryst.   s( 2) = (    -1          0          0      )    f =(  0.0000000 )
                  (     0         -1          0      )       (  0.0000000 )
                  (     0          0          1      )       ( -0.5000000 )

 cart.    s( 2) = ( -1.0000000  0.0000000  0.0000000 )    f =(  0.0000000 )
                  (  0.0000000 -1.0000000  0.0000000 )       (  0.0000000 )
                  (  0.0000000  0.0000000  1.0000000 )       ( -0.8133382 )

[...]

      isym =  4     180 deg rotation - cart. axis [1,0,0]

[...]

      isym =  5      60 deg rotation - cryst. axis [0,0,1]

[...]

 cryst.   s( 8) = (    -1         -1          0      )
                  (     1          0          0      )
                  (     0          0          1      )

 cart.    s( 8) = ( -0.5000000  0.8660254  0.0000000 )
                  ( -0.8660254 -0.5000000  0.0000000 )
                  (  0.0000000  0.0000000  1.0000000 )

[...]

 cryst.   s( 9) = (     0         -1          0      )    f =(  0.0000000 )
                  (    -1          0          0      )       (  0.0000000 )
                  (     0          0         -1      )       (  0.5000000 )

 cart.    s( 9) = (  0.5000000 -0.8660254  0.0000000 )    f =(  0.0000000 )
                  ( -0.8660254 -0.5000000  0.0000000 )       (  0.0000000 )
                  (  0.0000000  0.0000000 -1.0000000 )       (  0.8133382 )

[...]

 cryst.   s(10) = (     1          1          0      )    f =(  0.0000000 )
                  (     0         -1          0      )       ( -0.0000000 )
                  (     0          0         -1      )       (  0.5000000 )

 cart.    s(10) = (  0.5000000  0.8660254  0.0000000 )    f =(  0.0000000 )
                  (  0.8660254 -0.5000000  0.0000000 )       ( -0.0000000 )
                  (  0.0000000  0.0000000 -1.0000000 )       (  0.8133382 )

[...]

 cryst.   s(11) = (    -1         -1          0      )
                  (     0          1          0      )
                  (     0          0         -1      )

 cart.    s(11) = ( -0.5000000 -0.8660254  0.0000000 )
                  ( -0.8660254  0.5000000  0.0000000 )
                  (  0.0000000  0.0000000 -1.0000000 )

      isym = 12     180 deg rotation - cryst. axis [1,1,0]

[...]

      isym = 13     inversion

[...]

      isym = 14     inv. 180 deg rotation - cart. axis [0,0,1]

[...]

      isym = 16     inv. 180 deg rotation - cart. axis [1,0,0]

[...]

      isym = 17     inv.  60 deg rotation - cryst. axis [0,0,1]

[...]

 cryst.   s(22) = (    -1         -1          0      )    f =(  0.0000000 )
                  (     0          1          0      )       ( -0.0000000 )
                  (     0          0          1      )       ( -0.5000000 )

 cart.    s(22) = ( -0.5000000 -0.8660254  0.0000000 )    f =(  0.0000000 )
                  ( -0.8660254  0.5000000  0.0000000 )       ( -0.0000000 )
                  (  0.0000000  0.0000000  1.0000000 )       ( -0.8133382 )

[...]

      isym = 24     inv. 180 deg rotation - cryst. axis [1,1,0]

 cryst.   s(24) = (     0         -1          0      )
                  (    -1          0          0      )
                  (     0          0          1      )

 cart.    s(24) = (  0.5000000 -0.8660254  0.0000000 )
                  ( -0.8660254 -0.5000000  0.0000000 )
                  (  0.0000000  0.0000000  1.0000000 )

   Cartesian axes

     site n.     atom                  positions (alat units)
         1        Co     tau(   1) = (  -0.0000000   0.5773503   0.4066691  )
         2        Co     tau(   2) = (   0.5000000   0.2886751   1.2200074  )

   Crystallographic axes

     site n.     atom                  positions (cryst. coord.)
         1        Co     tau(   1) = (  0.3333333  0.6666667  0.2500000  )
         2        Co     tau(   2) = (  0.6666667  0.3333333  0.7500000  )

     number of k points=    42  Marzari-Vanderbilt smearing, width (Ry)=  0.0200
                       cart. coord. in units 2pi/alat
        k(    1) = (   0.0000000   0.0000000   0.0000000), wk =   0.0020000
        k(    2) = (   0.0000000   0.0000000   0.1229501), wk =   0.0040000
        k(    3) = (   0.0000000   0.0000000   0.2459002), wk =   0.0040000
        k(    4) = (   0.0000000   0.1154701   0.0000000), wk =   0.0120000
        k(    5) = (   0.0000000   0.1154701   0.1229501), wk =   0.0240000
        k(    6) = (   0.0000000   0.1154701   0.2459002), wk =   0.0240000
        k(    7) = (   0.0000000   0.2309401   0.0000000), wk =   0.0120000
        k(    8) = (   0.0000000   0.2309401   0.1229501), wk =   0.0240000
        k(    9) = (   0.0000000   0.2309401   0.2459002), wk =   0.0240000
        k(   10) = (   0.0000000   0.3464102   0.0000000), wk =   0.0120000
        k(   11) = (   0.0000000   0.3464102   0.1229501), wk =   0.0240000
        k(   12) = (   0.0000000   0.3464102   0.2459002), wk =   0.0240000
        k(   13) = (   0.0000000   0.4618802   0.0000000), wk =   0.0120000
        k(   14) = (   0.0000000   0.4618802   0.1229501), wk =   0.0240000
        k(   15) = (   0.0000000   0.4618802   0.2459002), wk =   0.0240000
        k(   16) = (   0.0000000  -0.5773503   0.0000000), wk =   0.0060000
        k(   17) = (   0.0000000  -0.5773503   0.1229501), wk =   0.0120000
        k(   18) = (   0.0000000  -0.5773503   0.2459002), wk =   0.0120000
        k(   19) = (   0.1000000   0.1732051   0.0000000), wk =   0.0120000
        k(   20) = (   0.1000000   0.1732051   0.1229501), wk =   0.0240000
        k(   21) = (   0.1000000   0.1732051   0.2459002), wk =   0.0240000
        k(   22) = (   0.1000000   0.2886751   0.0000000), wk =   0.0240000
        k(   23) = (   0.1000000   0.2886751   0.1229501), wk =   0.0480000
        k(   24) = (   0.1000000   0.2886751   0.2459002), wk =   0.0480000
        k(   25) = (   0.1000000   0.4041452   0.0000000), wk =   0.0240000
        k(   26) = (   0.1000000   0.4041452   0.1229501), wk =   0.0480000
        k(   27) = (   0.1000000   0.4041452   0.2459002), wk =   0.0480000
        k(   28) = (   0.1000000   0.5196152   0.0000000), wk =   0.0240000
        k(   29) = (   0.1000000   0.5196152   0.1229501), wk =   0.0480000
        k(   30) = (   0.1000000   0.5196152   0.2459002), wk =   0.0480000
        k(   31) = (   0.2000000   0.3464102   0.0000000), wk =   0.0120000
        k(   32) = (   0.2000000   0.3464102   0.1229501), wk =   0.0240000
        k(   33) = (   0.2000000   0.3464102   0.2459002), wk =   0.0240000
        k(   34) = (   0.2000000   0.4618802   0.0000000), wk =   0.0240000
        k(   35) = (   0.2000000   0.4618802   0.1229501), wk =   0.0480000
        k(   36) = (   0.2000000   0.4618802   0.2459002), wk =   0.0480000
        k(   37) = (   0.2000000   0.5773503   0.0000000), wk =   0.0120000
        k(   38) = (   0.2000000   0.5773503   0.1229501), wk =   0.0240000
        k(   39) = (   0.2000000   0.5773503   0.2459002), wk =   0.0240000
        k(   40) = (   0.3000000   0.5196152   0.0000000), wk =   0.0120000
        k(   41) = (   0.3000000   0.5196152   0.1229501), wk =   0.0240000
        k(   42) = (   0.3000000   0.5196152   0.2459002), wk =   0.0240000

                       cryst. coord.
        k(    1) = (   0.0000000   0.0000000   0.0000000), wk =   0.0020000
        k(    2) = (   0.0000000   0.0000000   0.2000000), wk =   0.0040000
        k(    3) = (   0.0000000   0.0000000   0.4000000), wk =   0.0040000
        k(    4) = (   0.0000000   0.1000000   0.0000000), wk =   0.0120000
        k(    5) = (   0.0000000   0.1000000   0.2000000), wk =   0.0240000
        k(    6) = (   0.0000000   0.1000000   0.4000000), wk =   0.0240000
        k(    7) = (   0.0000000   0.2000000   0.0000000), wk =   0.0120000
        k(    8) = (   0.0000000   0.2000000   0.2000000), wk =   0.0240000
        k(    9) = (   0.0000000   0.2000000   0.4000000), wk =   0.0240000
        k(   10) = (   0.0000000   0.3000000   0.0000000), wk =   0.0120000
        k(   11) = (   0.0000000   0.3000000   0.2000000), wk =   0.0240000
        k(   12) = (   0.0000000   0.3000000   0.4000000), wk =   0.0240000
        k(   13) = (   0.0000000   0.4000000   0.0000000), wk =   0.0120000
        k(   14) = (   0.0000000   0.4000000   0.2000000), wk =   0.0240000
        k(   15) = (   0.0000000   0.4000000   0.4000000), wk =   0.0240000
        k(   16) = (   0.0000000  -0.5000000   0.0000000), wk =   0.0060000
        k(   17) = (   0.0000000  -0.5000000   0.2000000), wk =   0.0120000
        k(   18) = (   0.0000000  -0.5000000   0.4000000), wk =   0.0120000
        k(   19) = (   0.1000000   0.1000000   0.0000000), wk =   0.0120000
        k(   20) = (   0.1000000   0.1000000   0.2000000), wk =   0.0240000
        k(   21) = (   0.1000000   0.1000000   0.4000000), wk =   0.0240000
        k(   22) = (   0.1000000   0.2000000   0.0000000), wk =   0.0240000
        k(   23) = (   0.1000000   0.2000000   0.2000000), wk =   0.0480000
        k(   24) = (   0.1000000   0.2000000   0.4000000), wk =   0.0480000
        k(   25) = (   0.1000000   0.3000000   0.0000000), wk =   0.0240000
        k(   26) = (   0.1000000   0.3000000   0.2000000), wk =   0.0480000
        k(   27) = (   0.1000000   0.3000000   0.4000000), wk =   0.0480000
        k(   28) = (   0.1000000   0.4000000   0.0000000), wk =   0.0240000
        k(   29) = (   0.1000000   0.4000000   0.2000000), wk =   0.0480000
        k(   30) = (   0.1000000   0.4000000   0.4000000), wk =   0.0480000
        k(   31) = (   0.2000000   0.2000000   0.0000000), wk =   0.0120000
        k(   32) = (   0.2000000   0.2000000   0.2000000), wk =   0.0240000
        k(   33) = (   0.2000000   0.2000000   0.4000000), wk =   0.0240000
        k(   34) = (   0.2000000   0.3000000   0.0000000), wk =   0.0240000
        k(   35) = (   0.2000000   0.3000000   0.2000000), wk =   0.0480000
        k(   36) = (   0.2000000   0.3000000   0.4000000), wk =   0.0480000
        k(   37) = (   0.2000000   0.4000000   0.0000000), wk =   0.0120000
        k(   38) = (   0.2000000   0.4000000   0.2000000), wk =   0.0240000
        k(   39) = (   0.2000000   0.4000000   0.4000000), wk =   0.0240000
        k(   40) = (   0.3000000   0.3000000   0.0000000), wk =   0.0120000
        k(   41) = (   0.3000000   0.3000000   0.2000000), wk =   0.0240000
        k(   42) = (   0.3000000   0.3000000   0.4000000), wk =   0.0240000

     Check: negative core charge=   -0.000020
     Generating pointlists ...
     new r_m :   0.4114 (alat units)  1.9220 (a.u.) for type    1

     Initial potential from superposition of free atoms

     starting charge      32.0000, renormalised to      34.0000
     Starting wfcs are   26 randomized atomic wfcs

     Self-consistent Calculation

     iteration #  1     ecut=    45.00 Ry     beta= 0.40
     Davidson diagonalization with overlap

     ethr =  1.00E-02,  avg # of iterations =  2.4

     total energy              =    -592.92185229 Ry
     estimated scf accuracy    <      13.35359872 Ry

     total magnetization       =     4.26 Bohr mag/cell
     absolute magnetization    =     4.43 Bohr mag/cell

[...]

     total energy              =    -596.97766304 Ry
     estimated scf accuracy    <       0.00000013 Ry

[...]

     iteration # 12     ecut=    45.00 Ry     beta= 0.40
     Davidson diagonalization with overlap

     ethr =  2.91E-10,  avg # of iterations =  1.8

     Magnetic moment per site  (integrated on atomic sphere of radius R)
     atom   1 (R=0.411)  charge= 15.5822  magn=  1.7587
     atom   2 (R=0.411)  charge= 15.5822  magn=  1.7587

     End of self-consistent calculation

 ------ SPIN UP ------------

          k = 0.0000 0.0000 0.0000 (   713 PWs)   bands (ev):

   -77.3910 -77.3313 -40.7837 -40.4786 -40.4786 -40.4401 -40.4296 -40.4296
     9.7440  13.5416  16.1085  16.1680  16.1680  16.4839  16.4839  16.8620
    16.8620  17.9767  17.9767  18.6270  25.2152

     occupation numbers
     1.0000   1.0000   1.0000   1.0000   1.0000   1.0000   1.0000   1.0000
     1.0000   1.0000   1.0000   1.0000   1.0000   1.0000   1.0000   1.0000
     1.0000   1.0002   1.0002   1.0248   0.0000

[...]

 ------ SPIN DOWN ----------

[...]

          k = 0.3000 0.5196 0.2459 (   748 PWs)   bands (ev):

   -74.9364 -74.9339 -38.4394 -38.4357 -38.3580 -38.3275 -38.2183 -38.2076
    15.8987  15.9225  16.4436  16.6796  17.0892  17.2873  18.6236  19.0214
    20.0320  20.2069  24.0690  24.9562  27.2729

     occupation numbers
     1.0000   1.0000   1.0000   1.0000   1.0000   1.0000   1.0000   1.0000
     1.0000   1.0000   1.0000   1.0000   1.0000   1.0000   1.0285   0.1531
     0.0000   0.0000   0.0000   0.0000   0.0000

     the Fermi energy is    18.8973 ev

!    total energy              =    -596.97766308 Ry
     estimated scf accuracy    <          2.0E-10 Ry
     smearing contrib. (-TS)   =       0.00165071 Ry
     internal energy E=F+TS    =    -596.97931379 Ry

     The total energy is F=E-TS. E is the sum of the following terms:
     one-electron contribution =    -304.90701581 Ry
     hartree contribution      =     174.96207420 Ry
     xc contribution           =     -65.39713096 Ry
     ewald contribution        =    -401.63724122 Ry

     total magnetization       =     3.36 Bohr mag/cell
     absolute magnetization    =     3.71 Bohr mag/cell

     convergence has been achieved in  12 iterations

     Forces acting on atoms (cartesian axes, Ry/au):

     atom    1 type  1   force =    -0.00000000   -0.00000000    0.00000000
     atom    2 type  1   force =     0.00000000   -0.00000000    0.00000000
     The non-local contrib.  to forces
     atom    1 type  1   force =     0.00000000   -0.00000000    0.00000000
     atom    2 type  1   force =    -0.00000000    0.00000000    0.00000000
     The ionic contribution  to forces
     atom    1 type  1   force =     0.00000011   -0.00000006    0.00000000
     atom    2 type  1   force =    -0.00000011    0.00000006   -0.00000000
     The local contribution  to forces
     atom    1 type  1   force =     0.00000450   -0.00000260    0.00000118
     atom    2 type  1   force =    -0.00001350    0.00000779    0.00000118
     The core correction contribution to forces
     atom    1 type  1   force =     0.00000003   -0.00000002   -0.00000001
     atom    2 type  1   force =    -0.00000009    0.00000005   -0.00000001
     The Hubbard contrib.    to forces
     atom    1 type  1   force =     0.00000000    0.00000000    0.00000000
     atom    2 type  1   force =     0.00000000    0.00000000    0.00000000
     The SCF correction term to forces
     atom    1 type  1   force =    -0.00000000    0.00000000   -0.00000000
     atom    2 type  1   force =     0.00000000   -0.00000000   -0.00000000

     Total force =     0.000000     Total SCF correction =     0.000000

     Computing stress (Cartesian axis) and pressure

          total   stress  (Ry/bohr**3)                   (kbar)     P=       47.48
   0.00036812   0.00000000   0.00000000           54.15        0.00        0.00
   0.00000000   0.00036812   0.00000000            0.00       54.15        0.00
   0.00000000   0.00000000   0.00023204            0.00        0.00       34.13

     kinetic stress (kbar)  57875.36     -0.00      0.00
                               -0.00  57875.36     -0.00
                                0.00     -0.00  57803.60

     local   stress (kbar)   8654.14     -0.00      0.00
                               -0.00   8654.14     -0.00
                                0.00     -0.00   7203.93

     nonloc. stress (kbar)  32357.75      0.00      0.00
                                0.00  32357.75      0.00
                                0.00      0.00  32334.43

     hartree stress (kbar)  59548.93     -0.00      0.00
                               -0.00  59548.93     -0.00
                                0.00     -0.00  60126.82

     exc-cor stress (kbar) -16316.29     -0.00      0.00
                               -0.00 -16316.29      0.00
                                0.00      0.00 -16316.71

     corecor stress (kbar)  -4609.10      0.00     -0.00
                                0.00  -4609.10      0.00
                               -0.00      0.00  -4608.87

     ewald   stress (kbar)-137456.64      0.00     -0.00
                                0.00-137456.64      0.00
                               -0.00      0.00-136509.07

     hubbard stress (kbar)      0.00      0.00      0.00
                                0.00      0.00      0.00
                                0.00      0.00      0.00

     DFT-D   stress (kbar)      0.00      0.00      0.00
                                0.00      0.00      0.00
                                0.00      0.00      0.00

     XDM     stress (kbar)      0.00      0.00      0.00
                                0.00      0.00      0.00
                                0.00      0.00      0.00

     dft-nl  stress (kbar)      0.00      0.00      0.00
                                0.00      0.00      0.00
                                0.00      0.00      0.00

     TS-vdW  stress (kbar)      0.00      0.00      0.00
                                0.00      0.00      0.00
                                0.00      0.00      0.00

     MDB     stress (kbar)      0.00      0.00      0.00
                                0.00      0.00      0.00
                                0.00      0.00      0.00

     3D-RISM stress (kbar)      0.00      0.00      0.00
                                0.00      0.00      0.00
                                0.00      0.00      0.00

     Writing all to output data dir ../out/Co.save/ :
     XML data file, charge density, pseudopotentials, collected wavefunctions

     General routines

     Parallel routines

   This run was terminated on:  15:45:45  12Jun2025

   JOB DONE.