     Program PWSCF v.7.2 starts on 24Feb2025 at 17: 6:57

     Waiting for input...
     Reading input from standard input

     Current dimensions of program PWSCF are:
     Max number of different atomic species (ntypx) = 10
     Max number of k-points (npk) =  40000
     Max angular momentum in pseudopotentials (lmaxx) =  4

     R & G space division:  proc/nbgrp/npool/nimage =       4
     Subspace diagonalization in iterative solution of the eigenvalue problem:
     a serial algorithm will be used

     Using Slab Decomposition

     bravais-lattice index     =            4
     lattice parameter (alat)  =       6.0150  a.u.
     unit-cell volume          =     240.8621 (a.u.)^3
     number of atoms/cell      =            3
     number of atomic types    =            2
     number of electrons       =        26.00
     number of Kohn-Sham states=           17
     kinetic-energy cutoff     =      50.0000  Ry
     charge density cutoff     =     200.0000  Ry
     scf convergence threshold =      1.2E-09
     mixing beta               =       0.4000
     number of iterations used =            8  plain     mixing
     Exchange-correlation= SLA  PW   PSX  PSC
                           (   1   4  10   8   0   0   0)

     celldm(1)=   6.015000  celldm(2)=   0.000000  celldm(3)=   1.278000
     celldm(4)=   0.000000  celldm(5)=   0.000000  celldm(6)=   0.000000

     crystal axes: (cart. coord. in units of alat)
               a(1) = (   1.000000   0.000000   0.000000 )
               a(2) = (  -0.500000   0.866025   0.000000 )
               a(3) = (   0.000000   0.000000   1.278000 )

     reciprocal axes: (cart. coord. in units 2 pi/alat)
               b(1) = (  1.000000  0.577350 -0.000000 )
               b(2) = (  0.000000  1.154701  0.000000 )
               b(3) = (  0.000000 -0.000000  0.782473 )

     PseudoPot. # 1 for S  read from file:
     ./pseudo/s_pbesol_v1.4.uspp.F.UPF
     MD5 check sum: 0ccfa86ec6eb59065d10aaae963ef2a7
     Pseudo is Ultrasoft + core correction, Zval =  6.0
     Generated by new atomic code, or converted to UPF format
     Using radial grid of  907 points,  6 beta functions with:
                l(1) =   0
                l(2) =   0
                l(3) =   1
                l(4) =   1
                l(5) =   2
                l(6) =   2
     Q(r) pseudized with  8 coefficients,  rinner =    1.300   1.300   1.300
                                                       1.300   1.300

     PseudoPot. # 2 for W  read from file:
     ./pseudo/w_pbesol_v1.2.uspp.F.UPF
     MD5 check sum: 78d6efd6ad550bd5be97e9711072ceda
     Pseudo is Ultrasoft + core correction, Zval = 14.0
     Generated by new atomic code, or converted to UPF format
     Using radial grid of  923 points,  8 beta functions with:
                l(1) =   0
                l(2) =   0
                l(3) =   0
                l(4) =   1
                l(5) =   1
                l(6) =   2
                l(7) =   2
                l(8) =   3
     Q(r) pseudized with  6 coefficients,  rinner =    1.350   1.350   1.350
                                                       1.350   1.350   1.350
                                                       1.350

     atomic species   valence    mass     pseudopotential
        S              6.00    32.06500     S ( 1.00)
        W             14.00   183.84000     W ( 1.00)

      6 Sym. Ops. (no inversion) found

                                    s                        frac. trans.

      isym =  1     identity

 cryst.   s( 1) = (     1          0          0      )
                  (     0          1          0      )
                  (     0          0          1      )

 cart.    s( 1) = (  1.0000000  0.0000000  0.0000000 )
                  (  0.0000000  1.0000000  0.0000000 )
                  (  0.0000000  0.0000000  1.0000000 )

      isym =  2     120 deg rotation - cryst. axis [0,0,1]

[...]

      isym =  3     120 deg rotation - cryst. axis [0,0,-1]

[...]

      isym =  4     inv. 180 deg rotation - cart. axis [1,0,0]

[...]

      isym =  5     inv. 180 deg rotation - cryst. axis [0,1,0]

[...]

      isym =  6     inv. 180 deg rotation - cryst. axis [1,1,0]

 cryst.   s( 6) = (     0         -1          0      )
                  (    -1          0          0      )
                  (     0          0          1      )

 cart.    s( 6) = (  0.5000000 -0.8660254  0.0000000 )
                  ( -0.8660254 -0.5000000  0.0000000 )
                  (  0.0000000  0.0000000  1.0000000 )

     point group C_3v (3m)
     there are  3 classes
     the character table:

       E     2C3   3s_v
A_1    1.00  1.00  1.00
A_2    1.00  1.00 -1.00
E      2.00 -1.00  0.00

     the symmetry operations in each class and the name of the first element:

     E        1
          identity
     2C3      2    3
          120 deg rotation - cryst. axis [0,0,1]
     3s_v     4    5    6
          inv. 180 deg rotation - cart. axis [1,0,0]

   Cartesian axes

     site n.     atom                  positions (alat units)
         1           W   tau(   1) = (  -0.0000005   0.5773506   0.4301045  )
         2           S   tau(   2) = (   0.0000000   0.0000000   0.8130483  )
         3           S   tau(   3) = (   0.5000005   0.2886748   0.0471288  )

   Crystallographic axes

     site n.     atom                  positions (cryst. coord.)
         1           W   tau(   1) = (  0.3333330  0.6666670  0.3365450  )
         2           S   tau(   2) = (  0.0000000  0.0000000  0.6361880  )
         3           S   tau(   3) = (  0.6666670  0.3333330  0.0368770  )

     number of k points=    69  Marzari-Vanderbilt smearing, width (Ry)=  0.0200
                       cart. coord. in units 2pi/alat
        k(    1) = (   0.0000000   0.0000000   0.0000000), wk =   0.0034722
        k(    2) = (   0.0000000   0.0000000   0.1956182), wk =   0.0069444
        k(    3) = (   0.0000000   0.0000000  -0.3912363), wk =   0.0034722
        k(    4) = (   0.0000000   0.0962250   0.0000000), wk =   0.0208333
        k(    5) = (   0.0000000   0.0962250   0.1956182), wk =   0.0208333
        k(    6) = (   0.0000000   0.0962250  -0.3912363), wk =   0.0208333
        k(    7) = (   0.0000000   0.1924501   0.0000000), wk =   0.0208333
        k(    8) = (   0.0000000   0.1924501   0.1956182), wk =   0.0208333
        k(    9) = (   0.0000000   0.1924501  -0.3912363), wk =   0.0208333
        k(   10) = (   0.0000000   0.2886751   0.0000000), wk =   0.0208333
        k(   11) = (   0.0000000   0.2886751   0.1956182), wk =   0.0208333
        k(   12) = (   0.0000000   0.2886751  -0.3912363), wk =   0.0208333
        k(   13) = (   0.0000000   0.3849002   0.0000000), wk =   0.0208333
        k(   14) = (   0.0000000   0.3849002   0.1956182), wk =   0.0208333
        k(   15) = (   0.0000000   0.3849002  -0.3912363), wk =   0.0208333
        k(   16) = (   0.0000000   0.4811252   0.0000000), wk =   0.0208333
        k(   17) = (   0.0000000   0.4811252   0.1956182), wk =   0.0208333
        k(   18) = (   0.0000000   0.4811252  -0.3912363), wk =   0.0208333
        k(   19) = (   0.0000000  -0.5773503   0.0000000), wk =   0.0104167
        k(   20) = (   0.0000000  -0.5773503   0.1956182), wk =   0.0208333
        k(   21) = (   0.0000000  -0.5773503  -0.3912363), wk =   0.0104167
        k(   22) = (   0.0833333   0.1443376   0.0000000), wk =   0.0208333
        k(   23) = (   0.0833333   0.1443376   0.1956182), wk =   0.0416667
        k(   24) = (   0.0833333   0.1443376  -0.3912363), wk =   0.0208333
        k(   25) = (   0.0833333   0.2405626   0.0000000), wk =   0.0416667
        k(   26) = (   0.0833333   0.2405626   0.1956182), wk =   0.0416667
        k(   27) = (   0.0833333   0.2405626  -0.3912363), wk =   0.0416667
        k(   28) = (   0.0833333   0.3367877   0.0000000), wk =   0.0416667
        k(   29) = (   0.0833333   0.3367877   0.1956182), wk =   0.0416667
        k(   30) = (   0.0833333   0.3367877  -0.3912363), wk =   0.0416667
        k(   31) = (   0.0833333   0.4330127   0.0000000), wk =   0.0416667
        k(   32) = (   0.0833333   0.4330127   0.1956182), wk =   0.0416667
        k(   33) = (   0.0833333   0.4330127  -0.3912363), wk =   0.0416667
        k(   34) = (   0.0833333   0.5292377   0.0000000), wk =   0.0416667
        k(   35) = (   0.0833333   0.5292377   0.1956182), wk =   0.0416667
        k(   36) = (   0.0833333   0.5292377  -0.3912363), wk =   0.0416667
        k(   37) = (   0.1666667   0.2886751   0.0000000), wk =   0.0208333
        k(   38) = (   0.1666667   0.2886751   0.1956182), wk =   0.0416667
        k(   39) = (   0.1666667   0.2886751  -0.3912363), wk =   0.0208333
        k(   40) = (   0.1666667   0.3849002   0.0000000), wk =   0.0416667
        k(   41) = (   0.1666667   0.3849002   0.1956182), wk =   0.0416667
        k(   42) = (   0.1666667   0.3849002  -0.3912363), wk =   0.0416667
        k(   43) = (   0.1666667   0.4811252   0.0000000), wk =   0.0416667
        k(   44) = (   0.1666667   0.4811252   0.1956182), wk =   0.0416667
        k(   45) = (   0.1666667   0.4811252  -0.3912363), wk =   0.0416667
        k(   46) = (   0.1666667   0.5773503   0.0000000), wk =   0.0208333
        k(   47) = (   0.1666667   0.5773503   0.1956182), wk =   0.0416667
        k(   48) = (   0.1666667   0.5773503  -0.3912363), wk =   0.0208333
        k(   49) = (   0.2500000   0.4330127   0.0000000), wk =   0.0208333
        k(   50) = (   0.2500000   0.4330127   0.1956182), wk =   0.0416667
        k(   51) = (   0.2500000   0.4330127  -0.3912363), wk =   0.0208333
        k(   52) = (   0.2500000   0.5292377   0.0000000), wk =   0.0416667
        k(   53) = (   0.2500000   0.5292377   0.1956182), wk =   0.0416667
        k(   54) = (   0.2500000   0.5292377  -0.3912363), wk =   0.0416667
        k(   55) = (   0.3333333   0.5773503   0.0000000), wk =   0.0069444
        k(   56) = (   0.3333333   0.5773503   0.1956182), wk =   0.0138889
        k(   57) = (   0.3333333   0.5773503  -0.3912363), wk =   0.0069444
        k(   58) = (   0.0000000  -0.0962250   0.1956182), wk =   0.0208333
        k(   59) = (   0.0000000  -0.1924501   0.1956182), wk =   0.0208333
        k(   60) = (   0.0000000  -0.2886751   0.1956182), wk =   0.0208333
        k(   61) = (   0.0000000  -0.3849002   0.1956182), wk =   0.0208333
        k(   62) = (   0.0000000  -0.4811252   0.1956182), wk =   0.0208333
        k(   63) = (  -0.0833333  -0.2405626   0.1956182), wk =   0.0416667
        k(   64) = (  -0.0833333  -0.3367877   0.1956182), wk =   0.0416667
        k(   65) = (  -0.0833333  -0.4330127   0.1956182), wk =   0.0416667
        k(   66) = (  -0.0833333  -0.5292377   0.1956182), wk =   0.0416667
        k(   67) = (  -0.1666667  -0.3849002   0.1956182), wk =   0.0416667
        k(   68) = (  -0.1666667  -0.4811252   0.1956182), wk =   0.0416667
        k(   69) = (  -0.2500000  -0.5292377   0.1956182), wk =   0.0416667

                       cryst. coord.
        k(    1) = (   0.0000000   0.0000000   0.0000000), wk =   0.0034722
        k(    2) = (   0.0000000   0.0000000   0.2500000), wk =   0.0069444
        k(    3) = (   0.0000000   0.0000000  -0.5000000), wk =   0.0034722
        k(    4) = (   0.0000000   0.0833333   0.0000000), wk =   0.0208333
        k(    5) = (   0.0000000   0.0833333   0.2500000), wk =   0.0208333
        k(    6) = (   0.0000000   0.0833333  -0.5000000), wk =   0.0208333
        k(    7) = (   0.0000000   0.1666667   0.0000000), wk =   0.0208333
        k(    8) = (   0.0000000   0.1666667   0.2500000), wk =   0.0208333
        k(    9) = (   0.0000000   0.1666667  -0.5000000), wk =   0.0208333
        k(   10) = (   0.0000000   0.2500000   0.0000000), wk =   0.0208333
        k(   11) = (   0.0000000   0.2500000   0.2500000), wk =   0.0208333
        k(   12) = (   0.0000000   0.2500000  -0.5000000), wk =   0.0208333
        k(   13) = (   0.0000000   0.3333333   0.0000000), wk =   0.0208333
        k(   14) = (   0.0000000   0.3333333   0.2500000), wk =   0.0208333
        k(   15) = (   0.0000000   0.3333333  -0.5000000), wk =   0.0208333
        k(   16) = (   0.0000000   0.4166667   0.0000000), wk =   0.0208333
        k(   17) = (   0.0000000   0.4166667   0.2500000), wk =   0.0208333
        k(   18) = (   0.0000000   0.4166667  -0.5000000), wk =   0.0208333
        k(   19) = (   0.0000000  -0.5000000   0.0000000), wk =   0.0104167
        k(   20) = (   0.0000000  -0.5000000   0.2500000), wk =   0.0208333
        k(   21) = (   0.0000000  -0.5000000  -0.5000000), wk =   0.0104167
        k(   22) = (   0.0833333   0.0833333   0.0000000), wk =   0.0208333
        k(   23) = (   0.0833333   0.0833333   0.2500000), wk =   0.0416667
        k(   24) = (   0.0833333   0.0833333  -0.5000000), wk =   0.0208333
        k(   25) = (   0.0833333   0.1666667   0.0000000), wk =   0.0416667
        k(   26) = (   0.0833333   0.1666667   0.2500000), wk =   0.0416667
        k(   27) = (   0.0833333   0.1666667  -0.5000000), wk =   0.0416667
        k(   28) = (   0.0833333   0.2500000   0.0000000), wk =   0.0416667
        k(   29) = (   0.0833333   0.2500000   0.2500000), wk =   0.0416667
        k(   30) = (   0.0833333   0.2500000  -0.5000000), wk =   0.0416667
        k(   31) = (   0.0833333   0.3333333   0.0000000), wk =   0.0416667
        k(   32) = (   0.0833333   0.3333333   0.2500000), wk =   0.0416667
        k(   33) = (   0.0833333   0.3333333  -0.5000000), wk =   0.0416667
        k(   34) = (   0.0833333   0.4166667   0.0000000), wk =   0.0416667
        k(   35) = (   0.0833333   0.4166667   0.2500000), wk =   0.0416667
        k(   36) = (   0.0833333   0.4166667  -0.5000000), wk =   0.0416667
        k(   37) = (   0.1666667   0.1666667   0.0000000), wk =   0.0208333
        k(   38) = (   0.1666667   0.1666667   0.2500000), wk =   0.0416667
        k(   39) = (   0.1666667   0.1666667  -0.5000000), wk =   0.0208333
        k(   40) = (   0.1666667   0.2500000   0.0000000), wk =   0.0416667
        k(   41) = (   0.1666667   0.2500000   0.2500000), wk =   0.0416667
        k(   42) = (   0.1666667   0.2500000  -0.5000000), wk =   0.0416667
        k(   43) = (   0.1666667   0.3333333   0.0000000), wk =   0.0416667
        k(   44) = (   0.1666667   0.3333333   0.2500000), wk =   0.0416667
        k(   45) = (   0.1666667   0.3333333  -0.5000000), wk =   0.0416667
        k(   46) = (   0.1666667   0.4166667   0.0000000), wk =   0.0208333
        k(   47) = (   0.1666667   0.4166667   0.2500000), wk =   0.0416667
        k(   48) = (   0.1666667   0.4166667  -0.5000000), wk =   0.0208333
        k(   49) = (   0.2500000   0.2500000   0.0000000), wk =   0.0208333
        k(   50) = (   0.2500000   0.2500000   0.2500000), wk =   0.0416667
        k(   51) = (   0.2500000   0.2500000  -0.5000000), wk =   0.0208333
        k(   52) = (   0.2500000   0.3333333   0.0000000), wk =   0.0416667
        k(   53) = (   0.2500000   0.3333333   0.2500000), wk =   0.0416667
        k(   54) = (   0.2500000   0.3333333  -0.5000000), wk =   0.0416667
        k(   55) = (   0.3333333   0.3333333   0.0000000), wk =   0.0069444
        k(   56) = (   0.3333333   0.3333333   0.2500000), wk =   0.0138889
        k(   57) = (   0.3333333   0.3333333  -0.5000000), wk =   0.0069444
        k(   58) = (   0.0000000  -0.0833333   0.2500000), wk =   0.0208333
        k(   59) = (   0.0000000  -0.1666667   0.2500000), wk =   0.0208333
        k(   60) = (   0.0000000  -0.2500000   0.2500000), wk =   0.0208333
        k(   61) = (   0.0000000  -0.3333333   0.2500000), wk =   0.0208333
        k(   62) = (   0.0000000  -0.4166667   0.2500000), wk =   0.0208333
        k(   63) = (  -0.0833333  -0.1666667   0.2500000), wk =   0.0416667
        k(   64) = (  -0.0833333  -0.2500000   0.2500000), wk =   0.0416667
        k(   65) = (  -0.0833333  -0.3333333   0.2500000), wk =   0.0416667
        k(   66) = (  -0.0833333  -0.4166667   0.2500000), wk =   0.0416667
        k(   67) = (  -0.1666667  -0.2500000   0.2500000), wk =   0.0416667
        k(   68) = (  -0.1666667  -0.3333333   0.2500000), wk =   0.0416667
        k(   69) = (  -0.2500000  -0.3333333   0.2500000), wk =   0.0416667

     Initial potential from superposition of free atoms

     starting charge      25.8996, renormalised to      26.0000

     negative rho (up, down):  6.344E-02 0.000E+00
     Starting wfcs are   21 randomized atomic wfcs

     Self-consistent Calculation

     iteration #  1     ecut=    50.00 Ry     beta= 0.40
     Davidson diagonalization with overlap

     ethr =  1.00E-02,  avg # of iterations =  4.4

     Threshold (ethr) on eigenvalues was too large:
     Diagonalizing with lowered threshold

     Davidson diagonalization with overlap

[...]

     negative rho (up, down):  6.483E-02 0.000E+00

     total energy              =    -206.90424639 Ry
     estimated scf accuracy    <       0.07138217 Ry

[...]

     ethr =  3.80E-10,  avg # of iterations =  4.8

[...]

     total energy              =    -206.90801206 Ry
     estimated scf accuracy    <       0.00000002 Ry

     iteration #  9     ecut=    50.00 Ry     beta= 0.40
     Davidson diagonalization with overlap

     c_bands:  1 eigenvalues not converged
     ethr =  8.18E-11,  avg # of iterations =  2.8

[...]

     End of self-consistent calculation

          k = 0.0000 0.0000 0.0000 (  1421 PWs)   bands (ev):

   -54.3473 -18.8588 -18.8587 -18.7120   0.9680   8.0015   9.8153  12.7214
    12.7214  18.4828  18.4828  19.1045  19.1045  20.5847  21.4411  22.2340
    22.2340

     occupation numbers
     1.0000   1.0000   1.0000   1.0000   1.0000   1.0000   1.0000   1.0000
     1.0000   1.0000   1.0000   1.0462   1.0462   0.0000   0.0000   0.0000
     0.0000

[...]

          k = 0.0000-0.4811 0.1956 (  1440 PWs)   bands (ev):

[...]

          k =-0.0833-0.2406 0.1956 (  1434 PWs)   bands (ev):

[...]

          k =-0.2500-0.5292 0.1956 (  1440 PWs)   bands (ev):

   -54.3243 -19.2308 -19.0990 -18.6255   4.5575   5.5576  10.7866  11.2902
    12.2181  15.5482  16.0701  17.0491  19.3502  21.0986  21.6849  25.7002
    26.2644

     occupation numbers
     1.0000   1.0000   1.0000   1.0000   1.0000   1.0000   1.0000   1.0000
     1.0000   1.0000   1.0000   1.0000   1.0387   0.0000   0.0000   0.0000
     0.0000

     the Fermi energy is    19.6337 ev

!    total energy              =    -206.90801207 Ry
     estimated scf accuracy    <          2.7E-10 Ry
     smearing contrib. (-TS)   =       0.00141208 Ry
     internal energy E=F+TS    =    -206.90942415 Ry

     The total energy is F=E-TS. E is the sum of the following terms:
     one-electron contribution =     -13.68836621 Ry
     hartree contribution      =      25.37662849 Ry
     xc contribution           =     -58.82008205 Ry
     ewald contribution        =    -159.77760438 Ry

     convergence has been achieved in   9 iterations

     negative rho (up, down):  6.739E-02 0.000E+00

     Forces acting on atoms (cartesian axes, Ry/au):

     atom    1 type  2   force =     0.00000000    0.00000000   -0.00008260
     atom    2 type  1   force =     0.00000000    0.00000000    0.16173606
     atom    3 type  1   force =     0.00000000   -0.00000000   -0.16165346
     The non-local contrib.  to forces
     atom    1 type  2   force =     0.00000000    0.00000000   -0.00001512
     atom    2 type  1   force =     0.00000000    0.00000000    0.02943873
     atom    3 type  1   force =     0.00000000    0.00000000   -0.02933883
     The ionic contribution  to forces
     atom    1 type  2   force =     0.00002478   -0.00001431   -0.00062886
     atom    2 type  1   force =    -0.00000639    0.00000369    6.45850840
     atom    3 type  1   force =    -0.00001839    0.00001062   -6.45787954
     The local contribution  to forces
     atom    1 type  2   force =     0.00012934   -0.00007468    0.00055654
     atom    2 type  1   force =     0.00000000   -0.00000000   -6.31770573
     atom    3 type  1   force =    -0.00000611    0.00000353    6.31706828
     The core correction contribution to forces
     atom    1 type  2   force =    -0.00000089    0.00000051    0.00000143
     atom    2 type  1   force =     0.00000000   -0.00000000   -0.00851747
     atom    3 type  1   force =     0.00000110   -0.00000063    0.00850957
     The Hubbard contrib.    to forces
     atom    1 type  2   force =     0.00000000    0.00000000    0.00000000
     atom    2 type  1   force =     0.00000000    0.00000000    0.00000000
     atom    3 type  1   force =     0.00000000    0.00000000    0.00000000
     The SCF correction term to forces
     atom    1 type  2   force =    -0.00000001    0.00000000    0.00000333
     atom    2 type  1   force =     0.00000000   -0.00000000    0.00001205
     atom    3 type  1   force =     0.00000000   -0.00000000   -0.00001303

     Total force =     0.228671     Total SCF correction =     0.000018

     Computing stress (Cartesian axis) and pressure

     negative rho (up, down):  6.739E-02 0.000E+00
          total   stress  (Ry/bohr**3)                   (kbar)     P=      944.28
   0.00522999  -0.00000000   0.00000000          769.36       -0.00        0.00
  -0.00000000   0.00522999   0.00000000           -0.00      769.36        0.00
   0.00000000   0.00000000   0.00879734            0.00        0.00     1294.13

     kinetic stress (kbar)  26114.09      0.00     -0.00
                                0.00  26114.09      0.00
                               -0.00      0.00  27377.54

     local   stress (kbar)   6037.54     -0.01     -0.00
                               -0.01   6037.53      0.00
                               -0.00      0.00  25431.03

     nonloc. stress (kbar)  -3317.98      0.00      0.00
                                0.00  -3317.98     -0.00
                                0.00     -0.00  -3529.37

     hartree stress (kbar)   7708.92     -0.00     -0.00
                               -0.00   7708.92      0.00
                               -0.00      0.00     80.78

     exc-cor stress (kbar)  13396.63      0.00      0.00
                                0.00  13396.63     -0.00
                                0.00     -0.00  13400.13

     corecor stress (kbar) -20737.88     -0.00     -0.00
                               -0.00 -20737.88      0.00
                               -0.00      0.00 -20746.67

     ewald   stress (kbar) -28431.98      0.01      0.01
                                0.01 -28431.96     -0.00
                                0.01     -0.00 -40719.30

     hubbard stress (kbar)      0.00      0.00      0.00
                                0.00      0.00      0.00
                                0.00      0.00      0.00

     DFT-D   stress (kbar)      0.00      0.00      0.00
                                0.00      0.00      0.00
                                0.00      0.00      0.00

     XDM     stress (kbar)      0.00      0.00      0.00
                                0.00      0.00      0.00
                                0.00      0.00      0.00

     dft-nl  stress (kbar)      0.00      0.00      0.00
                                0.00      0.00      0.00
                                0.00      0.00      0.00

     TS-vdW  stress (kbar)      0.00      0.00      0.00
                                0.00      0.00      0.00
                                0.00      0.00      0.00

     MDB     stress (kbar)      0.00      0.00      0.00
                                0.00      0.00      0.00
                                0.00      0.00      0.00

     3D-RISM stress (kbar)      0.00      0.00      0.00
                                0.00      0.00      0.00
                                0.00      0.00      0.00

     Writing all to output data dir ./out/aiida.save/

     General routines

     Parallel routines

   This run was terminated on:  17:59:29  24Feb2025

   JOB DONE.