     Program PWSCF v.7.2 starts on 23Feb2025 at 23: 0: 2

     Reading input from vcrelax.in

     Current dimensions of program PWSCF are:
     Max number of different atomic species (ntypx) = 10
     Max number of k-points (npk) =  40000
     Max angular momentum in pseudopotentials (lmaxx) =  4

     R & G space division:  proc/nbgrp/npool/nimage =       4
     Subspace diagonalization in iterative solution of the eigenvalue problem:
     a serial algorithm will be used

     Using Slab Decomposition

     bravais-lattice index     =            4
     lattice parameter (alat)  =       3.1842  a.u.
     unit-cell volume          =     113.9660 (a.u.)^3
     number of atoms/cell      =            3
     number of atomic types    =            2
     number of electrons       =        26.00
     number of Kohn-Sham states=           17
     kinetic-energy cutoff     =      35.0000  Ry
     charge density cutoff     =     280.0000  Ry
     scf convergence threshold =      1.2E-09
     mixing beta               =       0.4000
     number of iterations used =            8  plain     mixing
     energy convergence thresh.=      6.0E-05
     force convergence thresh. =      1.0E-04
     press convergence thresh. =      5.0E-01
     Exchange-correlation= SLA  PW   PSX  PSC
                           (   1   4  10   8   0   0   0)
     nstep                     =           50

     celldm(1)=   3.184223  celldm(2)=   0.000000  celldm(3)=   4.076000
     celldm(4)=   0.000000  celldm(5)=   0.000000  celldm(6)=   0.000000

     crystal axes: (cart. coord. in units of alat)
               a(1) = (   1.000000   0.000000   0.000000 )
               a(2) = (  -0.500000   0.866025   0.000000 )
               a(3) = (   0.000000   0.000000   4.076000 )

     reciprocal axes: (cart. coord. in units 2 pi/alat)
               b(1) = (  1.000000  0.577350 -0.000000 )
               b(2) = (  0.000000  1.154701  0.000000 )
               b(3) = (  0.000000 -0.000000  0.245339 )

     PseudoPot. # 1 for S  read from file:
     ./pseudo/s_pbesol_v1.4.uspp.F.UPF
     MD5 check sum: 0ccfa86ec6eb59065d10aaae963ef2a7
     Pseudo is Ultrasoft + core correction, Zval =  6.0
     Generated by new atomic code, or converted to UPF format
     Using radial grid of  907 points,  6 beta functions with:
                l(1) =   0
                l(2) =   0
                l(3) =   1
                l(4) =   1
                l(5) =   2
                l(6) =   2
     Q(r) pseudized with  8 coefficients,  rinner =    1.300   1.300   1.300
                                                       1.300   1.300

     PseudoPot. # 2 for W  read from file:
     ./pseudo/w_pbesol_v1.2.uspp.F.UPF
     MD5 check sum: 78d6efd6ad550bd5be97e9711072ceda
     Pseudo is Ultrasoft + core correction, Zval = 14.0
     Generated by new atomic code, or converted to UPF format
     Using radial grid of  923 points,  8 beta functions with:
                l(1) =   0
                l(2) =   0
                l(3) =   0
                l(4) =   1
                l(5) =   1
                l(6) =   2
                l(7) =   2
                l(8) =   3
     Q(r) pseudized with  6 coefficients,  rinner =    1.350   1.350   1.350
                                                       1.350   1.350   1.350
                                                       1.350

     atomic species   valence    mass     pseudopotential
        S              6.00    32.06500     S ( 1.00)
        W             14.00   183.84000     W ( 1.00)

      6 Sym. Ops. (no inversion) found

                                    s                        frac. trans.

      isym =  1     identity

 cryst.   s( 1) = (     1          0          0      )
                  (     0          1          0      )
                  (     0          0          1      )

 cart.    s( 1) = (  1.0000000  0.0000000  0.0000000 )
                  (  0.0000000  1.0000000  0.0000000 )
                  (  0.0000000  0.0000000  1.0000000 )

      isym =  2     120 deg rotation - cryst. axis [0,0,1]

[...]

      isym =  4     inv. 180 deg rotation - cart. axis [1,0,0]

[...]

      isym =  5     inv. 180 deg rotation - cryst. axis [0,1,0]

[...]

     point group C_3v (3m)
     there are  3 classes
     the character table:

       E     2C3   3s_v
A_1    1.00  1.00  1.00
A_2    1.00  1.00 -1.00
E      2.00 -1.00  0.00

     the symmetry operations in each class and the name of the first element:

     E        1
          identity
     2C3      2    3
          120 deg rotation - cryst. axis [0,0,1]
     3s_v     4    5    6
          inv. 180 deg rotation - cart. axis [1,0,0]

   Cartesian axes

     site n.     atom                  positions (alat units)
         1           W   tau(   1) = (  -0.0000005   0.5773506   1.0190000  )
         2           S   tau(   2) = (   0.0000000   0.0000000   2.5670852  )
         3           S   tau(   3) = (   0.5000005   0.2886748   0.5290852  )

   Crystallographic axes

     site n.     atom                  positions (cryst. coord.)
         1           W   tau(   1) = (  0.3333330  0.6666670  0.2500000  )
         2           S   tau(   2) = (  0.0000000  0.0000000  0.6298050  )
         3           S   tau(   3) = (  0.6666670  0.3333330  0.1298050  )

     number of k points=    30  Marzari-Vanderbilt smearing, width (Ry)=  0.0200
                       cart. coord. in units 2pi/alat
        k(    1) = (   0.0000000   0.0000000   0.0000000), wk =   0.0078125
        k(    2) = (   0.0000000   0.0721688   0.0000000), wk =   0.0468750
        k(    3) = (   0.0000000   0.1443376   0.0000000), wk =   0.0468750
        k(    4) = (   0.0000000   0.2165064   0.0000000), wk =   0.0468750
        k(    5) = (   0.0000000   0.2886751   0.0000000), wk =   0.0468750
        k(    6) = (   0.0000000   0.3608439   0.0000000), wk =   0.0468750
        k(    7) = (   0.0000000   0.4330127   0.0000000), wk =   0.0468750
        k(    8) = (   0.0000000   0.5051815   0.0000000), wk =   0.0468750
        k(    9) = (   0.0000000  -0.5773503   0.0000000), wk =   0.0234375
        k(   10) = (   0.0625000   0.1082532   0.0000000), wk =   0.0468750
        k(   11) = (   0.0625000   0.1804220   0.0000000), wk =   0.0937500
        k(   12) = (   0.0625000   0.2525907   0.0000000), wk =   0.0937500
        k(   13) = (   0.0625000   0.3247595   0.0000000), wk =   0.0937500
        k(   14) = (   0.0625000   0.3969283   0.0000000), wk =   0.0937500
        k(   15) = (   0.0625000   0.4690971   0.0000000), wk =   0.0937500
        k(   16) = (   0.0625000   0.5412659   0.0000000), wk =   0.0937500
        k(   17) = (   0.1250000   0.2165064   0.0000000), wk =   0.0468750
        k(   18) = (   0.1250000   0.2886751   0.0000000), wk =   0.0937500
        k(   19) = (   0.1250000   0.3608439   0.0000000), wk =   0.0937500
        k(   20) = (   0.1250000   0.4330127   0.0000000), wk =   0.0937500
        k(   21) = (   0.1250000   0.5051815   0.0000000), wk =   0.0937500
        k(   22) = (   0.1250000   0.5773503   0.0000000), wk =   0.0468750
        k(   23) = (   0.1875000   0.3247595   0.0000000), wk =   0.0468750
        k(   24) = (   0.1875000   0.3969283   0.0000000), wk =   0.0937500
        k(   25) = (   0.1875000   0.4690971   0.0000000), wk =   0.0937500
        k(   26) = (   0.1875000   0.5412659   0.0000000), wk =   0.0937500
        k(   27) = (   0.2500000   0.4330127   0.0000000), wk =   0.0468750
        k(   28) = (   0.2500000   0.5051815   0.0000000), wk =   0.0937500
        k(   29) = (   0.2500000   0.5773503   0.0000000), wk =   0.0468750
        k(   30) = (   0.3125000   0.5412659   0.0000000), wk =   0.0468750

                       cryst. coord.
        k(    1) = (   0.0000000   0.0000000   0.0000000), wk =   0.0078125
        k(    2) = (   0.0000000   0.0625000   0.0000000), wk =   0.0468750
        k(    3) = (   0.0000000   0.1250000   0.0000000), wk =   0.0468750
        k(    4) = (   0.0000000   0.1875000   0.0000000), wk =   0.0468750
        k(    5) = (   0.0000000   0.2500000   0.0000000), wk =   0.0468750
        k(    6) = (   0.0000000   0.3125000   0.0000000), wk =   0.0468750
        k(    7) = (   0.0000000   0.3750000   0.0000000), wk =   0.0468750
        k(    8) = (   0.0000000   0.4375000   0.0000000), wk =   0.0468750
        k(    9) = (   0.0000000  -0.5000000   0.0000000), wk =   0.0234375
        k(   10) = (   0.0625000   0.0625000   0.0000000), wk =   0.0468750
        k(   11) = (   0.0625000   0.1250000   0.0000000), wk =   0.0937500
        k(   12) = (   0.0625000   0.1875000   0.0000000), wk =   0.0937500
        k(   13) = (   0.0625000   0.2500000   0.0000000), wk =   0.0937500
        k(   14) = (   0.0625000   0.3125000   0.0000000), wk =   0.0937500
        k(   15) = (   0.0625000   0.3750000   0.0000000), wk =   0.0937500
        k(   16) = (   0.0625000   0.4375000   0.0000000), wk =   0.0937500
        k(   17) = (   0.1250000   0.1250000   0.0000000), wk =   0.0468750
        k(   18) = (   0.1250000   0.1875000   0.0000000), wk =   0.0937500
        k(   19) = (   0.1250000   0.2500000   0.0000000), wk =   0.0937500
        k(   20) = (   0.1250000   0.3125000   0.0000000), wk =   0.0937500
        k(   21) = (   0.1250000   0.3750000   0.0000000), wk =   0.0937500
        k(   22) = (   0.1250000   0.4375000   0.0000000), wk =   0.0468750
        k(   23) = (   0.1875000   0.1875000   0.0000000), wk =   0.0468750
        k(   24) = (   0.1875000   0.2500000   0.0000000), wk =   0.0937500
        k(   25) = (   0.1875000   0.3125000   0.0000000), wk =   0.0937500
        k(   26) = (   0.1875000   0.3750000   0.0000000), wk =   0.0937500
        k(   27) = (   0.2500000   0.2500000   0.0000000), wk =   0.0468750
        k(   28) = (   0.2500000   0.3125000   0.0000000), wk =   0.0937500
        k(   29) = (   0.2500000   0.3750000   0.0000000), wk =   0.0468750
        k(   30) = (   0.3125000   0.3125000   0.0000000), wk =   0.0468750

     Initial potential from superposition of free atoms

     starting charge      25.8996, renormalised to      26.0000

     negative rho (up, down):  3.493E-02 0.000E+00
     Starting wfcs are   21 randomized atomic wfcs

     Self-consistent Calculation

     iteration #  1     ecut=    35.00 Ry     beta= 0.40
     Davidson diagonalization with overlap

     ethr =  1.00E-02,  avg # of iterations =  7.4

     negative rho (up, down):  3.671E-02 0.000E+00

     total energy              =    -181.64491075 Ry
     estimated scf accuracy    <      19.75135346 Ry

[...]

     End of self-consistent calculation

          k = 0.0000 0.0000 0.0000 (   367 PWs)   bands (ev):

   -57.0540 -17.5640   2.7670   2.7670   9.7202  11.4672  22.3236  22.3236
    23.5906  26.6042  37.2992  37.9298  41.5119  41.5120  46.4465  53.6762
    55.3155

     occupation numbers
     1.0000   1.0000   1.0000   1.0000   1.0000   1.0000   1.0000   1.0000
     1.0000   1.0000   1.0000   1.0000   1.0000   1.0000   0.0000   0.0000
     0.0000

[...]

     the Fermi energy is    42.8965 ev

!    total energy              =    -191.56957666 Ry
[...]
S            -0.0000000000       -0.0000000000        0.6361880325
S             0.6666670000        0.3333330000        0.0368766359
End final coordinates

     Writing config-only to output data dir ./out/aiida.save/

     Final scf calculation at the relaxed structure.
     The G-vectors are recalculated for the final unit cell
     Results may differ from those at the preceding step.

     Using Slab Decomposition

     bravais-lattice index     =            4
     lattice parameter (alat)  =       3.1842  a.u.
     unit-cell volume          =     248.5540 (a.u.)^3
     number of atoms/cell      =            3
     number of atomic types    =            2
     number of electrons       =        26.00
     number of Kohn-Sham states=           17
     kinetic-energy cutoff     =      35.0000  Ry
     charge density cutoff     =     280.0000  Ry
     scf convergence threshold =      1.2E-11
     mixing beta               =       0.4000
     number of iterations used =            8  plain     mixing
     press convergence thresh. =      5.0E-01
     Exchange-correlation= SLA  PW   PSX  PSC
                           (   1   4  10   8   0   0   0)

     celldm(1)=   3.184223  celldm(2)=   0.000000  celldm(3)=   4.076000
     celldm(4)=   0.000000  celldm(5)=   0.000000  celldm(6)=   0.000000

     crystal axes: (cart. coord. in units of alat)
               a(1) = (   1.476804  -0.000000   0.000000 )
               a(2) = (  -0.738402   1.278950   0.000000 )
               a(3) = (   0.000000   0.000000   4.076000 )

     reciprocal axes: (cart. coord. in units 2 pi/alat)
               b(1) = (  0.677138  0.390946 -0.000000 )
               b(2) = (  0.000000  0.781892 -0.000000 )
               b(3) = ( -0.000000 -0.000000  0.245339 )

     PseudoPot. # 1 for S  read from file:
     ./pseudo/s_pbesol_v1.4.uspp.F.UPF
     MD5 check sum: 0ccfa86ec6eb59065d10aaae963ef2a7
     Pseudo is Ultrasoft + core correction, Zval =  6.0
     Generated by new atomic code, or converted to UPF format
     Using radial grid of  907 points,  6 beta functions with:
                l(1) =   0
                l(2) =   0
                l(3) =   1
                l(4) =   1
                l(5) =   2
                l(6) =   2
     Q(r) pseudized with  8 coefficients,  rinner =    1.300   1.300   1.300
                                                       1.300   1.300

     PseudoPot. # 2 for W  read from file:
     ./pseudo/w_pbesol_v1.2.uspp.F.UPF
     MD5 check sum: 78d6efd6ad550bd5be97e9711072ceda
     Pseudo is Ultrasoft + core correction, Zval = 14.0
     Generated by new atomic code, or converted to UPF format
     Using radial grid of  923 points,  8 beta functions with:
                l(1) =   0
                l(2) =   0
                l(3) =   0
                l(4) =   1
                l(5) =   1
                l(6) =   2
                l(7) =   2
                l(8) =   3
     Q(r) pseudized with  6 coefficients,  rinner =    1.350   1.350   1.350
                                                       1.350   1.350   1.350
                                                       1.350

     atomic species   valence    mass     pseudopotential
        S              6.00    32.06500     S ( 1.00)
        W             14.00   183.84000     W ( 1.00)

      6 Sym. Ops. (no inversion) found

                                    s                        frac. trans.

      isym =  1     identity

[...]

      isym =  3     120 deg rotation - cryst. axis [0,0,-1]

[...]

      isym =  4     inv. 180 deg rotation - cart. axis [1,0,0]

[...]

      isym =  6     inv. 180 deg rotation - cryst. axis [1,1,0]

 cryst.   s( 6) = (     0         -1          0      )
                  (    -1          0          0      )
                  (     0          0          1      )

 cart.    s( 6) = (  0.5000000 -0.8660254  0.0000000 )
                  ( -0.8660254 -0.5000000  0.0000000 )
                  (  0.0000000  0.0000000  1.0000000 )

     point group C_3v (3m)
     there are  3 classes
     the character table:

       E     2C3   3s_v
A_1    1.00  1.00  1.00
A_2    1.00  1.00 -1.00
E      2.00 -1.00  0.00

     the symmetry operations in each class and the name of the first element:

     E        1
          identity
     2C3      2    3
          120 deg rotation - cryst. axis [0,0,1]
     3s_v     4    5    6
          inv. 180 deg rotation - cart. axis [1,0,0]

   Cartesian axes

     site n.     atom                  positions (alat units)
         1           W   tau(   1) = (  -0.0000007   0.8526335   1.3717588  )
         2           S   tau(   2) = (  -0.0000000  -0.0000000   2.5931024  )
         3           S   tau(   3) = (   0.7384026   0.4263161   0.1503092  )

   Crystallographic axes

     site n.     atom                  positions (cryst. coord.)
         1           W   tau(   1) = (  0.3333330  0.6666670  0.3365453  )
         2           S   tau(   2) = ( -0.0000000 -0.0000000  0.6361880  )
         3           S   tau(   3) = (  0.6666670  0.3333330  0.0368766  )

     number of k points=    30  Marzari-Vanderbilt smearing, width (Ry)=  0.0200
                       cart. coord. in units 2pi/alat
        k(    1) = (   0.0000000   0.0000000   0.0000000), wk =   0.0078125
        k(    2) = (   0.0000000   0.0488682   0.0000000), wk =   0.0468750
        k(    3) = (   0.0000000   0.0977365   0.0000000), wk =   0.0468750
        k(    4) = (   0.0000000   0.1466047   0.0000000), wk =   0.0468750
        k(    5) = (   0.0000000   0.1954729   0.0000000), wk =   0.0468750
        k(    6) = (   0.0000000   0.2443411   0.0000000), wk =   0.0468750
        k(    7) = (   0.0000000   0.2932094   0.0000000), wk =   0.0468750
        k(    8) = (   0.0000000   0.3420776   0.0000000), wk =   0.0468750
        k(    9) = (  -0.0000000  -0.3909458   0.0000000), wk =   0.0234375
        k(   10) = (   0.0423211   0.0733023   0.0000000), wk =   0.0468750
        k(   11) = (   0.0423211   0.1221706   0.0000000), wk =   0.0937500
        k(   12) = (   0.0423211   0.1710388   0.0000000), wk =   0.0937500
        k(   13) = (   0.0423211   0.2199070   0.0000000), wk =   0.0937500
        k(   14) = (   0.0423211   0.2687753   0.0000000), wk =   0.0937500
        k(   15) = (   0.0423211   0.3176435   0.0000000), wk =   0.0937500
        k(   16) = (   0.0423211   0.3665117   0.0000000), wk =   0.0937500
        k(   17) = (   0.0846423   0.1466047   0.0000000), wk =   0.0468750
        k(   18) = (   0.0846423   0.1954729   0.0000000), wk =   0.0937500
        k(   19) = (   0.0846423   0.2443411   0.0000000), wk =   0.0937500
        k(   20) = (   0.0846423   0.2932094   0.0000000), wk =   0.0937500
        k(   21) = (   0.0846423   0.3420776   0.0000000), wk =   0.0937500
        k(   22) = (   0.0846423   0.3909458   0.0000000), wk =   0.0468750
        k(   23) = (   0.1269634   0.2199070   0.0000000), wk =   0.0468750
        k(   24) = (   0.1269634   0.2687753   0.0000000), wk =   0.0937500
        k(   25) = (   0.1269634   0.3176435   0.0000000), wk =   0.0937500
        k(   26) = (   0.1269634   0.3665117   0.0000000), wk =   0.0937500
        k(   27) = (   0.1692845   0.2932094   0.0000000), wk =   0.0468750
        k(   28) = (   0.1692845   0.3420776   0.0000000), wk =   0.0937500
        k(   29) = (   0.1692845   0.3909458   0.0000000), wk =   0.0468750
        k(   30) = (   0.2116056   0.3665117   0.0000000), wk =   0.0468750

                       cryst. coord.
        k(    1) = (   0.0000000   0.0000000   0.0000000), wk =   0.0078125
        k(    2) = (  -0.0000000   0.0625000   0.0000000), wk =   0.0468750
        k(    3) = (  -0.0000000   0.1250000   0.0000000), wk =   0.0468750
        k(    4) = (   0.0000000   0.1875000   0.0000000), wk =   0.0468750
        k(    5) = (  -0.0000000   0.2500000   0.0000000), wk =   0.0468750
        k(    6) = (   0.0000000   0.3125000   0.0000000), wk =   0.0468750
        k(    7) = (   0.0000000   0.3750000   0.0000000), wk =   0.0468750
        k(    8) = (  -0.0000000   0.4375000   0.0000000), wk =   0.0468750
        k(    9) = (   0.0000000  -0.5000000   0.0000000), wk =   0.0234375
        k(   10) = (   0.0625000   0.0625000   0.0000000), wk =   0.0468750
        k(   11) = (   0.0625000   0.1250000   0.0000000), wk =   0.0937500
        k(   12) = (   0.0625000   0.1875000   0.0000000), wk =   0.0937500
        k(   13) = (   0.0625000   0.2500000   0.0000000), wk =   0.0937500
        k(   14) = (   0.0625000   0.3125000   0.0000000), wk =   0.0937500
        k(   15) = (   0.0625000   0.3750000   0.0000000), wk =   0.0937500
        k(   16) = (   0.0625000   0.4375000   0.0000000), wk =   0.0937500
        k(   17) = (   0.1250000   0.1250000   0.0000000), wk =   0.0468750
        k(   18) = (   0.1250000   0.1875000   0.0000000), wk =   0.0937500
        k(   19) = (   0.1250000   0.2500000   0.0000000), wk =   0.0937500
        k(   20) = (   0.1250000   0.3125000   0.0000000), wk =   0.0937500
        k(   21) = (   0.1250000   0.3750000   0.0000000), wk =   0.0937500
        k(   22) = (   0.1250000   0.4375000   0.0000000), wk =   0.0468750
        k(   23) = (   0.1875000   0.1875000   0.0000000), wk =   0.0468750
        k(   24) = (   0.1875000   0.2500000   0.0000000), wk =   0.0937500
        k(   25) = (   0.1875000   0.3125000   0.0000000), wk =   0.0937500
        k(   26) = (   0.1875000   0.3750000   0.0000000), wk =   0.0937500
        k(   27) = (   0.2500000   0.2500000   0.0000000), wk =   0.0468750
        k(   28) = (   0.2500000   0.3125000   0.0000000), wk =   0.0937500
        k(   29) = (   0.2500000   0.3750000   0.0000000), wk =   0.0468750
        k(   30) = (   0.3125000   0.3125000   0.0000000), wk =   0.0468750

     Initial potential from superposition of free atoms

     starting charge      25.8996, renormalised to      26.0000

     negative rho (up, down):  6.195E-02 0.000E+00
     Starting wfcs are   21 randomized atomic wfcs

     Self-consistent Calculation

[...]

     c_bands:  1 eigenvalues not converged
     c_bands:  1 eigenvalues not converged
     c_bands:  1 eigenvalues not converged
     c_bands:  2 eigenvalues not converged
     c_bands:  2 eigenvalues not converged
     c_bands:  1 eigenvalues not converged
     ethr =  1.00E-06,  avg # of iterations = 16.1

[...]

     total energy              =    -206.80956498 Ry
     estimated scf accuracy    <          1.9E-11 Ry

     iteration # 17     ecut=    35.00 Ry     beta= 0.40
     Davidson diagonalization with overlap

     ethr =  1.00E-13,  avg # of iterations =  1.0

[...]

     End of self-consistent calculation

[...]

          k =-0.0000-0.3909 0.0000 (   864 PWs)   bands (ev):

[...]

          k = 0.2116 0.3665 0.0000 (   876 PWs)   bands (ev):

   -54.5077 -20.1134 -19.7510 -19.0255   7.1107   7.1862  10.7232  11.3098
    11.7389  12.6842  15.0259  15.3597  17.4039  18.2944  20.0021  21.1541
    21.3472

     occupation numbers
     1.0000   1.0000   1.0000   1.0000   1.0000   1.0000   1.0000   1.0000
     1.0000   1.0000   1.0000   1.0000   1.0000   1.0001   0.0000   0.0000
     0.0000

     the Fermi energy is    19.2838 ev

!    total energy              =    -206.80956498 Ry
     estimated scf accuracy    <          5.9E-12 Ry
     smearing contrib. (-TS)   =      -0.00120906 Ry
     internal energy E=F+TS    =    -206.80835592 Ry

     The total energy is F=E-TS. E is the sum of the following terms:
     one-electron contribution =     -62.99085496 Ry
     hartree contribution      =      49.57927757 Ry
     xc contribution           =     -58.60278649 Ry
     ewald contribution        =    -134.79399205 Ry

     convergence has been achieved in  17 iterations

     negative rho (up, down):  6.304E-02 0.000E+00

     Forces acting on atoms (cartesian axes, Ry/au):

     atom    1 type  2   force =     0.00000000    0.00000000   -0.00001726
     atom    2 type  1   force =     0.00000000    0.00000000    0.00075624
     atom    3 type  1   force =     0.00000000    0.00000000   -0.00073898
     The non-local contrib.  to forces
     atom    1 type  2   force =     0.00000000    0.00000000   -0.00001351
     atom    2 type  1   force =     0.00000000    0.00000000   -0.24163991
     atom    3 type  1   force =     0.00000000    0.00000000    0.24165204
     The ionic contribution  to forces
     atom    1 type  2   force =     0.00000215   -0.00000124   -0.00266034
     atom    2 type  1   force =    -0.00000067    0.00000039   17.01729548
     atom    3 type  1   force =    -0.00000147    0.00000085  -17.01463513
     The local contribution  to forces
     atom    1 type  2   force =     0.00008639   -0.00004988    0.00264926
     atom    2 type  1   force =     0.00000000   -0.00000000  -16.78442536
     atom    3 type  1   force =    -0.00000674    0.00000389   16.78178973
     The core correction contribution to forces
     atom    1 type  2   force =    -0.00000073    0.00000042   -0.00000163
     atom    2 type  1   force =     0.00000000   -0.00000000    0.00951067
     atom    3 type  1   force =     0.00000085   -0.00000049   -0.00954741
     The Hubbard contrib.    to forces
     atom    1 type  2   force =     0.00000000    0.00000000    0.00000000
     atom    2 type  1   force =     0.00000000    0.00000000    0.00000000
     atom    3 type  1   force =     0.00000000    0.00000000    0.00000000
     The SCF correction term to forces
     atom    1 type  2   force =    -0.00000000    0.00000000    0.00000032
     atom    2 type  1   force =     0.00000000   -0.00000000    0.00000672
     atom    3 type  1   force =     0.00000000   -0.00000000   -0.00000685

     Total force =     0.001057     Total SCF correction =     0.000010

     Computing stress (Cartesian axis) and pressure

     negative rho (up, down):  6.304E-02 0.000E+00
          total   stress  (Ry/bohr**3)                   (kbar)     P=      651.61
   0.00658257  -0.00000000   0.00000000          968.33       -0.00        0.00
  -0.00000000   0.00658257   0.00000000           -0.00      968.33        0.00
   0.00000000   0.00000000   0.00012346            0.00        0.00       18.16

     kinetic stress (kbar)  25871.29     -0.00     -0.00
                               -0.00  25871.29     -0.00
                               -0.00     -0.00  24665.22

     local   stress (kbar) -31204.12     -0.00     -0.00
                               -0.00 -31204.12      0.00
                               -0.00      0.00  69905.19

     nonloc. stress (kbar)  -3595.69     -0.00      0.00
                               -0.00  -3595.69      0.00
                                0.00      0.00  -3135.84

     hartree stress (kbar)  24555.16     -0.00     -0.00
                               -0.00  24555.16      0.00
                               -0.00      0.00 -19767.15

     exc-cor stress (kbar)  13018.98      0.00      0.00
                                0.00  13018.98     -0.00
                                0.00     -0.00  13006.78

     corecor stress (kbar) -20078.66     -0.00     -0.00
                               -0.00 -20078.66      0.00
                               -0.00      0.00 -20076.35

     ewald   stress (kbar)  -7598.63      0.00      0.00
                                0.00  -7598.63     -0.00
                                0.00     -0.00 -64579.69

     hubbard stress (kbar)      0.00      0.00      0.00
                                0.00      0.00      0.00
                                0.00      0.00      0.00

     DFT-D   stress (kbar)      0.00      0.00      0.00
                                0.00      0.00      0.00
                                0.00      0.00      0.00

     XDM     stress (kbar)      0.00      0.00      0.00
                                0.00      0.00      0.00
                                0.00      0.00      0.00

     dft-nl  stress (kbar)      0.00      0.00      0.00
                                0.00      0.00      0.00
                                0.00      0.00      0.00

     TS-vdW  stress (kbar)      0.00      0.00      0.00
                                0.00      0.00      0.00
                                0.00      0.00      0.00

     MDB     stress (kbar)      0.00      0.00      0.00
                                0.00      0.00      0.00
                                0.00      0.00      0.00

     3D-RISM stress (kbar)      0.00      0.00      0.00
                                0.00      0.00      0.00
                                0.00      0.00      0.00

     Writing all to output data dir ./out/aiida.save/

     General routines

     Parallel routines

   This run was terminated on:   8:10:20  24Feb2025

   JOB DONE.